&CONTROL
  calculation='scf',
  verbosity='high',
  restart_mode='from_scratch',
  tstress=.false.,
  tprnfor=.true.,
  prefix='Al',
  pseudo_dir='/ascldap/users/namodin/MLDFT/pp/',
  outdir='out',
/
&SYSTEM
 ibrav=0,
 nosym=.true.,
 nat=256,
 ntyp=1,
 ecutwfc=100,
 ecutrho=400,
 occupations='smearing',
 smearing='fermi-dirac',
 degauss=0.00590928377
 nbnd=576
/
&ELECTRONS
 mixing_mode='plain',
 mixing_beta=0.2,
 conv_thr=0.000256,
/

ATOMIC_SPECIES
 Al  26.981539  Al.sr-pbesol.upf

K_POINTS automatic
 8 8 8 0 0 0

CELL_PARAMETERS angstrom
16.19800000000000 0.00000000000000 0.00000000000000
0.00000000000000 16.19800000000000 0.00000000000000
0.00000000000000 0.00000000000000 16.19800000000000

ATOMIC_POSITIONS crystal
Al    0.00518829     0.00356501     0.98791897
Al    0.00222191     0.13453940     0.11763345
Al    0.12110347     0.99364921     0.12494853
Al    0.11818861     0.12588069     0.99073258
Al    0.00845727     0.00205675     0.25908128
Al    0.03211246     0.12003628     0.36844451
Al    0.12686519     0.98943532     0.36074737
Al    0.14291592     0.12438468     0.23972361
Al    0.00223606     0.98994139     0.50673488
Al    0.99677299     0.13407831     0.62773526
Al    0.11611898     0.99373014     0.63843963
Al    0.12852260     0.13550884     0.50441864
Al    0.00228543     0.99623742     0.75524920
Al    0.97645393     0.12987079     0.87426509
Al    0.12794806     0.01294677     0.87049605
Al    0.12171736     0.12628441     0.74555146
Al    0.99435455     0.23727612     0.99099955
Al    0.01177951     0.36446420     0.11012020
Al    0.13094126     0.23063292     0.11619068
Al    0.13264832     0.35959784     0.98560643
Al    0.01947177     0.24042304     0.24484141
Al    0.99582073     0.37421412     0.36593777
Al    0.13140224     0.24949750     0.37985388
Al    0.12685522     0.36873851     0.23472870
Al    0.00601142     0.25793001     0.51809184
Al    0.00473613     0.38447453     0.62727243
Al    0.12827519     0.25091026     0.63552511
Al    0.11886290     0.38534167     0.49782246
Al    0.99938144     0.25371900     0.75535161
Al    0.99476132     0.36540992     0.86831817
Al    0.12586684     0.23790194     0.87561347
Al    0.11939885     0.36792742     0.75142379
Al    0.99976850     0.49873944     0.98581816
Al    0.98696743     0.63309127     0.11912346
Al    0.11773085     0.49504140     0.11233206
Al    0.12212522     0.62669157     0.98913158
Al    0.99654304     0.48977098     0.23547843
Al    0.98703335     0.63256726     0.37480575
Al    0.10439504     0.50224306     0.37798465
Al    0.12461175     0.61474723     0.24535347
Al    0.98528942     0.50551753     0.49926364
Al    0.00592043     0.60975040     0.62800791
Al    0.13733296     0.48418419     0.62105260
Al    0.11669745     0.62690148     0.49729174
Al    0.99887305     0.50855326     0.76314694
Al    0.01540105     0.63263269     0.87462249
Al    0.13630515     0.49084700     0.89517306
Al    0.12197448     0.63003525     0.75108286
Al    0.99054590     0.75082041     0.99764465
Al    0.98367196     0.87147752     0.11361634
Al    0.11526503     0.74334806     0.11959483
Al    0.12216203     0.87677470     0.00828756
Al    0.00610748     0.74356303     0.24779213
Al    0.99858631     0.87019306     0.38682102
Al    0.10916246     0.73487762     0.38316910
Al    0.13460407     0.85444406     0.25203331
Al    0.99413431     0.74583300     0.50404073
Al    0.98441209     0.87117792     0.62176477
Al    0.10056616     0.74916145     0.62606709
Al    0.12780142     0.88141278     0.49115094
Al    0.97763798     0.74174636     0.74299466
Al    0.99834243     0.88873388     0.89168128
Al    0.14236315     0.77016294     0.88557120
Al    0.10198680     0.86911057     0.74124561
Al    0.25412647     0.99364625     0.00700858
Al    0.25005094     0.11341867     0.13189214
Al    0.38224266     0.00280935     0.12256209
Al    0.38861826     0.11857598     0.99269867
Al    0.25249830     0.00026697     0.26702078
Al    0.24554726     0.11025190     0.38482362
Al    0.38422919     0.01072749     0.37157606
Al    0.37620179     0.13635528     0.25337487
Al    0.25271010     0.99930598     0.50041773
Al    0.25071085     0.12963214     0.62003056
Al    0.37550421     0.01092590     0.61489455
Al    0.37363617     0.14091220     0.50453049
Al    0.25901142     0.99956673     0.74847157
Al    0.26039063     0.11403604     0.87808276
Al    0.38512240     0.98453169     0.87572573
Al    0.36013003     0.11635579     0.77463764
Al    0.26154579     0.22818761     0.01214907
Al    0.23510920     0.37273360     0.12282410
Al    0.39075780     0.24889600     0.12882660
Al    0.38672315     0.36283989     0.00387710
Al    0.25185041     0.25512451     0.25588275
Al    0.24602127     0.38415989     0.35125722
Al    0.37444317     0.26156650     0.36932558
Al    0.37918793     0.36482048     0.23694650
Al    0.25038777     0.25712797     0.49289437
Al    0.25927125     0.36028126     0.64700610
Al    0.36010540     0.24629383     0.62448929
Al    0.36760419     0.37804499     0.50837011
Al    0.24386491     0.25414291     0.76403944
Al    0.25694999     0.37239108     0.88647054
Al    0.38803805     0.25819558     0.86885061
Al    0.39875931     0.37657452     0.76023057
Al    0.26236759     0.49678644     0.01263916
Al    0.24296175     0.63257392     0.12702601
Al    0.37985377     0.49944601     0.12561102
Al    0.36620870     0.61948153     0.00919132
Al    0.26151482     0.50790380     0.24077530
Al    0.25027249     0.61340420     0.36478022
Al    0.37887910     0.47991548     0.35522089
Al    0.38928607     0.61064503     0.24901158
Al    0.26196637     0.49980316     0.50541479
Al    0.24220702     0.62546741     0.61312369
Al    0.36882949     0.49848132     0.65307592
Al    0.35549552     0.61687072     0.50303060
Al    0.25804498     0.47180014     0.76489766
Al    0.24449073     0.61928638     0.87576275
Al    0.38262823     0.50651159     0.87573934
Al    0.35864801     0.64705572     0.74361030
Al    0.25183481     0.75219373     0.00128730
Al    0.24417962     0.88721153     0.12340070
Al    0.39359309     0.75669881     0.13328541
Al    0.37901687     0.87201637     0.02031994
Al    0.27229927     0.75284596     0.25265201
Al    0.25879781     0.85876946     0.38570484
Al    0.38899532     0.75458685     0.37681566
Al    0.37776265     0.89104110     0.25287808
Al    0.23924190     0.73593885     0.49744398
Al    0.24890469     0.86809897     0.60609107
Al    0.36098645     0.75601087     0.61527487
Al    0.38031625     0.87403201     0.48513761
Al    0.23905734     0.76431565     0.74743325
Al    0.24459003     0.88295081     0.87267617
Al    0.35899675     0.75828211     0.87990673
Al    0.36496814     0.87423404     0.74022344
Al    0.50646206     0.01326787     0.99902447
Al    0.50919701     0.13246851     0.11985017
Al    0.63718857     0.00496138     0.11217757
Al    0.62755815     0.12266421     0.97788932
Al    0.50100880     0.00946745     0.24271122
Al    0.50912531     0.12269642     0.38642596
Al    0.62691462     0.00294036     0.37688534
Al    0.64122728     0.11313385     0.25155305
Al    0.50493980     0.00476837     0.50152382
Al    0.50666445     0.12715326     0.62369881
Al    0.63950995     0.99831468     0.61956463
Al    0.63171800     0.13181365     0.49787812
Al    0.48711068     0.99745626     0.74674203
Al    0.51551971     0.11529596     0.86247870
Al    0.63926115     0.99948041     0.83249027
Al    0.65355259     0.12857630     0.72329032
Al    0.50353759     0.25395184     0.99970510
Al    0.51239178     0.36270782     0.13159800
Al    0.62853335     0.24426968     0.14009652
Al    0.63549813     0.35806940     0.99337420
Al    0.52230425     0.23543148     0.26174737
Al    0.50170223     0.37243976     0.35654180
Al    0.64051205     0.25628921     0.37658009
Al    0.63219784     0.37391496     0.25652977
Al    0.49778324     0.25330358     0.49919555
Al    0.49726361     0.37147631     0.62349847
Al    0.62454774     0.26022474     0.63254804
Al    0.61848909     0.36887689     0.49727756
Al    0.49157160     0.22452425     0.74397457
Al    0.48780242     0.37291044     0.89286602
Al    0.62753123     0.24958369     0.87617470
Al    0.60551364     0.37487263     0.76231912
Al    0.50265201     0.50772668     0.99888090
Al    0.51785974     0.62680863     0.13766941
Al    0.63531903     0.50271490     0.13719287
Al    0.63676918     0.63791571     0.99375411
Al    0.50031197     0.48873671     0.23622600
Al    0.49005905     0.61871216     0.37660480
Al    0.61792792     0.48141513     0.38003717
Al    0.63151472     0.61483726     0.26204703
Al    0.48053458     0.48757111     0.48399634
Al    0.46912258     0.63601034     0.62403736
Al    0.59490169     0.50344733     0.62638005
Al    0.60631265     0.62006920     0.50016155
Al    0.50274258     0.50727498     0.75495920
Al    0.48843114     0.64839979     0.87688759
Al    0.61068632     0.50105027     0.89376588
Al    0.59350719     0.64201122     0.74400251
Al    0.48571827     0.74015950     0.99883917
Al    0.50825429     0.89190105     0.11493698
Al    0.62291624     0.76740233     0.12222527
Al    0.63055817     0.87012409     0.00245697
Al    0.51715517     0.73918487     0.25833222
Al    0.50089424     0.88830769     0.36248813
Al    0.61900857     0.73850743     0.38419534
Al    0.61597026     0.88002727     0.24637279
Al    0.48994594     0.76888379     0.51150148
Al    0.50263673     0.90334148     0.62590374
Al    0.60491824     0.75335763     0.62759893
Al    0.61363884     0.87005923     0.50597812
Al    0.48354677     0.77955609     0.73455386
Al    0.51587930     0.89268698     0.89376110
Al    0.62783566     0.74689666     0.86725500
Al    0.61031700     0.87714623     0.75589810
Al    0.75363315     0.99821040     0.99742924
Al    0.75511863     0.13081842     0.13289225
Al    0.88763858     0.01192720     0.13221398
Al    0.86182498     0.13480650     0.00130590
Al    0.74869069     0.00173981     0.25987278
Al    0.75479489     0.13289727     0.40002656
Al    0.87100412     0.00391153     0.38978780
Al    0.89408860     0.14291965     0.26614553
Al    0.74902004     0.99895888     0.50510598
Al    0.75736463     0.13065713     0.60552045
Al    0.88617425     0.99256774     0.62512125
Al    0.89069061     0.13165506     0.49588748
Al    0.76807193     0.98758409     0.73323091
Al    0.75121839     0.12516642     0.85081313
Al    0.86129148     0.99329109     0.86965708
Al    0.86679940     0.12572173     0.74279637
Al    0.74399052     0.23464508     0.97992181
Al    0.75097870     0.35395981     0.15206695
Al    0.87880005     0.24794231     0.12565196
Al    0.87972692     0.36963332     0.99470781
Al    0.76816855     0.24427025     0.25322878
Al    0.76436655     0.37508066     0.37866786
Al    0.88326190     0.26687911     0.40100156
Al    0.87683158     0.37609954     0.25526195
Al    0.74449706     0.27356236     0.50803174
Al    0.74914496     0.39874807     0.64120002
Al    0.86983032     0.24354768     0.63031318
Al    0.87386513     0.38976290     0.51941270
Al    0.75500396     0.25812057     0.73690540
Al    0.74653008     0.36639993     0.87144555
Al    0.87530036     0.25978447     0.86781981
Al    0.88381855     0.38226607     0.74618072
Al    0.74789025     0.50109044     0.00066145
Al    0.76152969     0.63133799     0.11689554
Al    0.88593821     0.49175395     0.12778569
Al    0.86409783     0.61844808     0.99333327
Al    0.74978900     0.50080603     0.24565012
Al    0.76382742     0.62256071     0.37174165
Al    0.87121536     0.49749286     0.38186693
Al    0.88657518     0.62247084     0.25448128
Al    0.74434534     0.50502028     0.50701912
Al    0.72929111     0.62292713     0.63136663
Al    0.86773891     0.51735998     0.64800040
Al    0.85494407     0.61897276     0.50946640
Al    0.73582686     0.50159348     0.76010049
Al    0.74086465     0.62424129     0.87322336
Al    0.87037120     0.49065063     0.86753762
Al    0.86031396     0.63244518     0.76916385
Al    0.74872142     0.75807691     0.98789469
Al    0.74579462     0.87545768     0.14311744
Al    0.87255945     0.76965125     0.11316542
Al    0.85374546     0.87231249     0.00121863
Al    0.76054771     0.73845794     0.23760014
Al    0.75059396     0.85783054     0.37700315
Al    0.88350866     0.75558997     0.36329071
Al    0.88014712     0.88813051     0.23506911
Al    0.72977947     0.74121761     0.50357392
Al    0.75531111     0.88095013     0.61051136
Al    0.85515073     0.74322600     0.61394923
Al    0.86454255     0.86961613     0.50275624
Al    0.74679467     0.75264780     0.73763491
Al    0.75412808     0.87006055     0.85982851
Al    0.87671455     0.75534015     0.87914969
Al    0.87133699     0.86706346     0.74561647
