&CONTROL
  calculation='scf',
  verbosity='high',
  restart_mode='from_scratch',
  tstress=.false.,
  tprnfor=.true.,
  prefix='Al',
  pseudo_dir='/ascldap/users/namodin/MLDFT/pp/',
  outdir='out',
/
&SYSTEM
 ibrav=0,
 nosym=.true.,
 nat=256,
 ntyp=1,
 ecutwfc=100,
 ecutrho=400,
 occupations='smearing',
 smearing='fermi-dirac',
 degauss=0.00590928377
 nbnd=576
/
&ELECTRONS
 mixing_mode='plain',
 mixing_beta=0.2,
 conv_thr=0.000256,
/

ATOMIC_SPECIES
 Al  26.981539  Al.sr-pbesol.upf

K_POINTS automatic
 8 8 8 0 0 0

CELL_PARAMETERS angstrom
16.19800000000000 0.00000000000000 0.00000000000000
0.00000000000000 16.19800000000000 0.00000000000000
0.00000000000000 0.00000000000000 16.19800000000000

ATOMIC_POSITIONS crystal
Al    0.60575303     0.65152903     0.25701091
Al    0.85404731     0.46357614     0.67433872
Al    0.99877772     0.60914911     0.82390070
Al    0.27859413     0.89969962     0.89125424
Al    0.30361768     0.66392310     0.01769301
Al    0.45909444     0.11041865     0.04158860
Al    0.51344602     0.66594214     0.49290494
Al    0.11668300     0.77201108     0.24587013
Al    0.13530006     0.81932385     0.59349137
Al    0.90351025     0.12815182     0.25840625
Al    0.84038666     0.99784379     0.91619911
Al    0.33487752     0.27498441     0.82918654
Al    0.07299958     0.34882994     0.16877466
Al    0.71791859     0.50242523     0.77044836
Al    0.47841715     0.09506908     0.31515214
Al    0.49660987     0.43020678     0.18806053
Al    0.12450417     0.96724343     0.47450171
Al    0.72333297     0.98318325     0.48682347
Al    0.83966188     0.56122424     0.52319773
Al    0.09102734     0.43111722     0.43724920
Al    0.98924304     0.96842994     0.58600029
Al    0.76078454     0.04874999     0.17920286
Al    0.36679411     0.22930742     0.35843401
Al    0.31831677     0.52075466     0.11108633
Al    0.63539181     0.23634137     0.02619844
Al    0.03355046     0.63075531     0.22423275
Al    0.45024345     0.81675038     0.42315535
Al    0.87293176     0.69783453     0.61431133
Al    0.39033617     0.17759780     0.69667792
Al    0.17649947     0.68154954     0.46579851
Al    0.18426206     0.94174442     0.74348653
Al    0.68099671     0.70810844     0.52213904
Al    0.53876639     0.40915266     0.49815122
Al    0.02693556     0.76157904     0.90856401
Al    0.05916912     0.10215678     0.50228288
Al    0.27550096     0.82766390     0.48058623
Al    0.93426446     0.02357777     0.73836719
Al    0.19476741     0.95062519     0.31447977
Al    0.48632386     0.58472326     0.19500125
Al    0.78348425     0.48413805     0.33214649
Al    0.24224007     0.13523114     0.76319141
Al    0.89883576     0.94937607     0.21968713
Al    0.60597007     0.35588071     0.90524082
Al    0.09911145     0.35154851     0.99980366
Al    0.55260123     0.53856538     0.60958928
Al    0.42927683     0.79394568     0.58958516
Al    0.54009471     0.53378352     0.35324718
Al    0.45537526     0.66343491     0.89127739
Al    0.84934146     0.60974455     0.75658591
Al    0.07913572     0.78491549     0.08110364
Al    0.44829382     0.38966873     0.83349141
Al    0.77396185     0.29960716     0.63240968
Al    0.65079274     0.49234018     0.23641034
Al    0.26446145     0.39048346     0.33250067
Al    0.81262978     0.26217759     0.05296408
Al    0.57703112     0.83594868     0.52428150
Al    0.78398215     0.37381555     0.20171047
Al    0.22917357     0.66297862     0.30292850
Al    0.35381317     0.81909122     0.01501819
Al    0.78507039     0.97664676     0.33911735
Al    0.32016285     0.83130659     0.75206696
Al    0.88449864     0.09528742     0.51153741
Al    0.25119871     0.45909167     0.60155061
Al    0.64362575     0.73857168     0.12463268
Al    0.89318594     0.66367051     0.93502635
Al    0.36876695     0.99862495     0.99965200
Al    0.97270251     0.82083602     0.50017917
Al    0.18303659     0.65016600     0.13349029
Al    0.92487837     0.01931785     0.36704216
Al    0.24017859     0.53863193     0.41692874
Al    0.76351266     0.35979086     0.92798958
Al    0.69261513     0.96531906     0.92574822
Al    0.54435528     0.79814819     0.22920632
Al    0.88169857     0.07921779     0.07201909
Al    0.19037486     0.50578691     0.98494926
Al    0.52922613     0.25110530     0.77593027
Al    0.15539472     0.21097437     0.61960001
Al    0.81382418     0.78895868     0.14437238
Al    0.32365096     0.00583642     0.18758443
Al    0.21010421     0.32461183     0.47448313
Al    0.67931177     0.43063387     0.62478492
Al    0.38344826     0.36620567     0.49844866
Al    0.62756477     0.39253491     0.05427839
Al    0.04682937     0.28097788     0.50446976
Al    0.56786163     0.71331755     0.63707233
Al    0.20499961     0.40406683     0.11178370
Al    0.77903451     0.47441750     0.07174782
Al    0.22846884     0.14259648     0.45574527
Al    0.77482681     0.08054184     0.80552625
Al    0.47923856     0.24010639     0.93365490
Al    0.29990335     0.60411420     0.72048002
Al    0.38280909     0.10841593     0.87730851
Al    0.94793317     0.65472788     0.09620920
Al    0.59933166     0.10935208     0.92404396
Al    0.89442099     0.50241381     0.19983297
Al    0.44926320     0.00833731     0.62232778
Al    0.59695865     0.02133443     0.59458453
Al    0.08655773     0.39355389     0.61631447
Al    0.34115760     0.23177981     0.54128643
Al    0.25916501     0.59690511     0.56619443
Al    0.64351181     0.39513499     0.37563901
Al    0.59353298     0.30235916     0.62681368
Al    0.62691439     0.99158161     0.07129740
Al    0.76622660     0.82221380     0.93801245
Al    0.92729066     0.38258702     0.37765979
Al    0.07650070     0.62917548     0.99482990
Al    0.47817196     0.90578786     0.74200364
Al    0.22480218     0.92469426     0.03924198
Al    0.34823255     0.35930170     0.19419389
Al    0.13636063     0.03351556     0.62896613
Al    0.17602567     0.76468162     0.96634007
Al    0.09760671     0.08909331     0.34825974
Al    0.27721080     0.11723323     0.04428822
Al    0.01786215     0.05815666     0.17369783
Al    0.75981280     0.90938277     0.78308219
Al    0.94258367     0.28384175     0.66654037
Al    0.14218452     0.21042290     0.08924696
Al    0.44046393     0.72432858     0.74510634
Al    0.59621620     0.79905290     0.82780970
Al    0.85756155     0.77744494     0.79610813
Al    0.15233203     0.50405207     0.73704253
Al    0.99647060     0.57634925     0.66519171
Al    0.09405667     0.29738578     0.74163973
Al    0.92912407     0.28945567     0.23243480
Al    0.07945465     0.06249319     0.78565280
Al    0.99789740     0.73017028     0.71705143
Al    0.40169242     0.46113196     0.64790027
Al    0.45044267     0.41037427     0.01883480
Al    0.97070557     0.44634947     0.51674565
Al    0.94682928     0.34384609     0.91774951
Al    0.41358077     0.54206941     0.47677968
Al    0.59047497     0.13244991     0.17673347
Al    0.38139496     0.84107462     0.19171900
Al    0.89044259     0.85951746     0.66473633
Al    0.51085164     0.97589896     0.90281085
Al    0.75483645     0.84004773     0.58447879
Al    0.77655170     0.14718522     0.40190238
Al    0.51342028     0.15597548     0.59328953
Al    0.30856351     0.71638344     0.86536442
Al    0.50467659     0.26656937     0.27062658
Al    0.40950050     0.93478141     0.30704980
Al    0.49632654     0.96808837     0.47871400
Al    0.40418357     0.10985918     0.47401821
Al    0.58263174     0.91403908     0.34832193
Al    0.59696883     0.62241142     0.77593821
Al    0.73991348     0.10302885     0.02793209
Al    0.86155405     0.93600436     0.49469915
Al    0.42141007     0.62518513     0.61389495
Al    0.49715974     0.27258546     0.10353424
Al    0.13115310     0.66411053     0.67922921
Al    0.69541286     0.28124963     0.48771501
Al    0.28443482     0.73854518     0.63466638
Al    0.78897333     0.91943947     0.05570799
Al    0.73481538     0.78532083     0.26855645
Al    0.74649227     0.20675779     0.21551230
Al    0.09848211     0.93034960     0.90790256
Al    0.47655445     0.72588041     0.08904022
Al    0.87531324     0.84029999     0.34980348
Al    0.99279039     0.40406803     0.76307686
Al    0.18198345     0.37950459     0.84522858
Al    0.40178622     0.17276487     0.19543897
Al    0.71078380     0.73365080     0.72057766
Al    0.62942309     0.32366623     0.20641029
Al    0.63686154     0.22946259     0.34123840
Al    0.24013316     0.81026002     0.15791607
Al    0.35630389     0.01695099     0.75698602
Al    0.74100807     0.67195587     0.86435892
Al    0.68130390     0.91853308     0.20358444
Al    0.77962187     0.01122033     0.65414509
Al    0.80594434     0.29814741     0.35727759
Al    0.86719566     0.17063689     0.91377250
Al    0.09617445     0.19417816     0.88057037
Al    0.65830987     0.52803190     0.46225234
Al    0.36330294     0.69203800     0.47978740
Al    0.05561280     0.19005294     0.23739241
Al    0.10262102     0.54047468     0.55857653
Al    0.85293507     0.66532676     0.27457398
Al    0.03116483     0.45385623     0.27613007
Al    0.34357680     0.26351094     0.06026797
Al    0.30236968     0.80077588     0.31964535
Al    0.25435070     0.31352025     0.67989784
Al    0.17836992     0.60659356     0.86175773
Al    0.29483216     0.92671019     0.60422234
Al    0.30028865     0.09575216     0.33463906
Al    0.75617106     0.61550222     0.17541513
Al    0.09268865     0.30757655     0.33375746
Al    0.52398220     0.98165168     0.19439287
Al    0.63971205     0.00787398     0.77775910
Al    0.22177991     0.24899445     0.94011739
Al    0.34557390     0.68988019     0.17837390
Al    0.94091897     0.38962752     0.10653767
Al    0.84567655     0.16455278     0.70114561
Al    0.92843787     0.57487185     0.37553427
Al    0.45982769     0.67769308     0.32351874
Al    0.68094911     0.33089169     0.76635291
Al    0.96855302     0.17934132     0.79734378
Al    0.34456289     0.54422723     0.27667147
Al    0.83636652     0.30880295     0.79439045
Al    0.98808212     0.95738151     0.04642294
Al    0.44348916     0.83387989     0.87367433
Al    0.73870250     0.84315554     0.42904688
Al    0.18038021     0.08273780     0.18717403
Al    0.57131991     0.43398227     0.74465081
Al    0.21598675     0.23797312     0.24892073
Al    0.84537907     0.71808566     0.44831914
Al    0.43695274     0.31554804     0.66222382
Al    0.72039467     0.64690944     0.37327103
Al    0.09497748     0.58350950     0.36078199
Al    0.72629010     0.14052787     0.56119854
Al    0.99503255     0.73702352     0.35211987
Al    0.94501761     0.90294973     0.84286789
Al    0.48249488     0.89864129     0.08240329
Al    0.95500406     0.20842505     0.38776407
Al    0.05418622     0.47213303     0.89961162
Al    0.56391593     0.51635959     0.90478074
Al    0.79354948     0.39581885     0.49269573
Al    0.65825223     0.16927147     0.70039422
Al    0.59517577     0.82824228     0.00902820
Al    0.42734755     0.39985828     0.34840924
Al    0.46096611     0.57666934     0.03829465
Al    0.03598724     0.91497138     0.30402213
Al    0.60224247     0.68381609     0.96974136
Al    0.87866679     0.47820858     0.84293085
Al    0.98801737     0.05116872     0.90077649
Al    0.74532926     0.65189942     0.02370924
Al    0.91461552     0.81309523     0.01487106
Al    0.87135192     0.26692808     0.52123400
Al    0.99693287     0.13753877     0.63816845
Al    0.29602995     0.43550655     0.77581617
Al    0.64839415     0.05967065     0.30852787
Al    0.18991769     0.52913218     0.22927879
Al    0.49814734     0.25850215     0.45307479
Al    0.20451406     0.06743441     0.90276964
Al    0.30901662     0.96992467     0.44238835
Al    0.60461483     0.76131782     0.38082532
Al    0.61278211     0.56504988     0.09421874
Al    0.43915140     0.54644328     0.76611022
Al    0.98734185     0.20458698     0.02194457
Al    0.34278239     0.53720103     0.90390850
Al    0.99384272     0.65970963     0.50713589
Al    0.11906814     0.81496274     0.41657465
Al    0.29503749     0.39353297     0.95550697
Al    0.58730818     0.10631869     0.44904168
Al    0.73959367     0.51816043     0.92591593
Al    0.71316569     0.20708547     0.87551824
Al    0.10855245     0.91696956     0.17233559
Al    0.92188162     0.51501383     0.00866568
Al    0.04338507     0.88971714     0.70834859
Al    0.16282443     0.77993128     0.78410004
Al    0.50189598     0.08363789     0.76231698
Al    0.95992165     0.79921291     0.18436796
Al    0.62743852     0.87590224     0.68348598
Al    0.71935603     0.59681697     0.62990780
Al    0.29482637     0.09349561     0.60385284
Al    0.06399989     0.50471951     0.10357905
Al    0.11637871     0.06533322     0.03330068
