Al.scf.pw
&CONTROL
  calculation='scf',
  verbosity='high',
  restart_mode='from_scratch',
  tstress=.true.,
  tprnfor=.true.,
  prefix='Al',
  pseudo_dir='/ascldap/users/namodin/MLDFT/pp/',
  outdir='out',
/
 
&SYSTEM
 ibrav=0,
 nosym=.true.,
 nat=256,
 ntyp=1,
 ecutwfc=100,
 ecutrho=400,
 occupations='smearing',
 smearing='fermi-dirac',
 degauss=0.0019,
/
 
&ELECTRONS
 mixing_mode='plain',
 mixing_beta=0.2,
 conv_thr=0.000256,
/
 
ATOMIC_SPECIES
 Al  26.981539  Al.sr-pbesol.upf
 
K_POINTS automatic
 8 8 8 0 0 0
 
CELL_PARAMETERS angstrom
16.19800000  0.00000000  0.00000000
0.00000000  16.19800000  0.00000000
0.00000000  0.00000000  16.19800000
 
ATOMIC_POSITIONS {alat}
Al  0.00317715  0.00115020  0.00422977
Al  0.00020601  0.12325432  0.12276585
Al  0.13205907  0.00069849  0.12880466
Al  0.12035063  0.12233298  0.00500888
Al  0.99616080  0.99965781  0.25468156
Al  0.00462834  0.11696233  0.37753909
Al  0.13126733  0.00105961  0.37584558
Al  0.11831629  0.13176219  0.25212569
Al  0.00779253  0.99842842  0.50068938
Al  0.99406565  0.12050283  0.62795631
Al  0.12039495  0.99518808  0.62583829
Al  0.12049355  0.12381140  0.50177796
Al  0.99335490  0.01245642  0.75437014
Al  0.99553204  0.13002426  0.87495149
Al  0.11943260  0.01288485  0.85395661
Al  0.13138905  0.13208432  0.74220015
Al  0.00382143  0.24709358  0.00053019
Al  0.99204471  0.37073519  0.12626821
Al  0.11874381  0.25060539  0.13404114
Al  0.11679824  0.37202808  0.00098539
Al  0.99223667  0.24879828  0.24894088
Al  0.99033374  0.37367286  0.37740263
Al  0.12258871  0.24839655  0.38475195
Al  0.12073235  0.37545826  0.25391324
Al  0.99414425  0.25962947  0.50477243
Al  0.99545625  0.39077079  0.62318287
Al  0.11229683  0.24772820  0.61759188
Al  0.12817764  0.37661444  0.49803461
Al  0.00321505  0.25783831  0.75237872
Al  0.99978890  0.37320385  0.86750262
Al  0.12814221  0.25837418  0.87188042
Al  0.13120253  0.38190646  0.75012449
Al  0.99484757  0.49812333  0.00609974
Al  0.00874093  0.61918173  0.12645399
Al  0.12780204  0.49617002  0.11988085
Al  0.12226886  0.61840000  0.99658195
Al  0.00793260  0.49965903  0.24600526
Al  0.00325045  0.61742519  0.35830843
Al  0.13001625  0.50497624  0.37276834
Al  0.12888048  0.61619867  0.24525564
Al  0.00725752  0.49718671  0.49005208
Al  0.00809822  0.62296642  0.62954075
Al  0.13096336  0.50063965  0.62282885
Al  0.12195581  0.62021395  0.49527532
Al  0.99547982  0.50080057  0.73804569
Al  0.00972095  0.62755205  0.87195202
Al  0.11302378  0.49835758  0.86591511
Al  0.13264708  0.62729203  0.75399568
Al  0.01326271  0.74521439  0.98957500
Al  0.00308360  0.88595919  0.13014794
Al  0.13008724  0.74119884  0.12955884
Al  0.11689139  0.87730057  0.00074077
Al  0.00598782  0.74653283  0.24416491
Al  0.99993759  0.87055960  0.37502856
Al  0.12679125  0.74442819  0.37338182
Al  0.13173136  0.87223433  0.25545163
Al  0.00075479  0.74591358  0.50343419
Al  0.98829944  0.87376572  0.62937187
Al  0.12462864  0.74836788  0.62116638
Al  0.12111028  0.87199090  0.50129970
Al  0.99367338  0.74957799  0.75284518
Al  0.00069577  0.88157231  0.87119742
Al  0.12945036  0.76313369  0.86763456
Al  0.11475345  0.87795232  0.75038888
Al  0.23626248  0.00319436  0.99166677
Al  0.25757080  0.12700004  0.12783241
Al  0.37099739  0.99374573  0.12173435
Al  0.37029839  0.11613890  0.99404599
Al  0.25302916  0.99711742  0.24225680
Al  0.25196272  0.12266725  0.37109725
Al  0.37381480  0.99324247  0.37948380
Al  0.38064617  0.12924791  0.24513119
Al  0.25254530  0.98903725  0.49475226
Al  0.25394042  0.12783157  0.61666274
Al  0.37372857  0.99731025  0.62863151
Al  0.37756758  0.12120710  0.49756168
Al  0.23710907  0.00496925  0.74787682
Al  0.24708361  0.13299635  0.86870489
Al  0.36903611  0.99772149  0.87386064
Al  0.37613133  0.12940253  0.75595693
Al  0.25074156  0.24968000  0.00237963
Al  0.24176045  0.37397695  0.11819446
Al  0.37099257  0.25277893  0.12126261
Al  0.36491106  0.38167290  0.00319109
Al  0.24943387  0.24137978  0.24963289
Al  0.25168702  0.37152301  0.37586054
Al  0.37679982  0.24767965  0.37002965
Al  0.36566749  0.36687118  0.24719678
Al  0.25668066  0.24935992  0.49689055
Al  0.23688615  0.37325791  0.61362708
Al  0.36775284  0.25295831  0.63339193
Al  0.37058487  0.37232564  0.50641822
Al  0.24058480  0.25887981  0.74450233
Al  0.24768663  0.38273245  0.88066757
Al  0.37052541  0.26712547  0.87335350
Al  0.37038910  0.37579674  0.75276513
Al  0.24253455  0.49942232  0.99487916
Al  0.25074173  0.62442019  0.12243577
Al  0.37311382  0.49914902  0.12420954
Al  0.37320920  0.62350426  0.99376271
Al  0.25389455  0.49538335  0.25271040
Al  0.25658599  0.62317196  0.37349744
Al  0.38212228  0.49034093  0.37947714
Al  0.38090066  0.60896281  0.25545615
Al  0.24329407  0.50142690  0.49126120
Al  0.25269515  0.62955678  0.62841784
Al  0.37042634  0.50105050  0.62697351
Al  0.37084280  0.62520133  0.51267915
Al  0.25231582  0.50422315  0.74908575
Al  0.25083118  0.62883028  0.87233488
Al  0.38054186  0.49697121  0.87200829
Al  0.38857876  0.61850989  0.74785557
Al  0.25779019  0.74847839  0.99939367
Al  0.24911012  0.87420062  0.12270013
Al  0.37379063  0.73973313  0.12344417
Al  0.37805029  0.86810019  0.99298930
Al  0.25333605  0.74287691  0.24945202
Al  0.25383293  0.87208918  0.37325974
Al  0.37376891  0.74959858  0.37877335
Al  0.37486391  0.86890075  0.25672474
Al  0.23915687  0.74103044  0.49724675
Al  0.24369823  0.87643261  0.62451626
Al  0.38505233  0.75239503  0.62617122
Al  0.37847875  0.87612161  0.51019113
Al  0.26582340  0.74964806  0.74671707
Al  0.24070512  0.87568485  0.87138745
Al  0.38127443  0.74478341  0.87734871
Al  0.37122727  0.88166043  0.75464351
Al  0.49676265  0.99913572  0.00773492
Al  0.49677586  0.12889222  0.11883841
Al  0.62632069  0.00209937  0.12239078
Al  0.61429381  0.12500820  0.00331895
Al  0.50499332  0.99536389  0.25588511
Al  0.51758471  0.12246991  0.37168698
Al  0.62685441  0.99657069  0.38221316
Al  0.62133037  0.10677543  0.24236551
Al  0.50283046  0.00027661  0.50517401
Al  0.49924389  0.12871700  0.63075628
Al  0.61973760  0.99776872  0.63487085
Al  0.62154625  0.13372902  0.49349498
Al  0.48858742  0.00996567  0.75577873
Al  0.50030758  0.12998960  0.88598660
Al  0.61675238  0.01078308  0.87268885
Al  0.62062082  0.13817810  0.75159238
Al  0.49551556  0.25732791  0.99892171
Al  0.49621790  0.37539287  0.12546048
Al  0.63140164  0.26479969  0.12145568
Al  0.61997492  0.37552116  0.99192773
Al  0.50866253  0.24052677  0.24820621
Al  0.50268749  0.36723972  0.37156275
Al  0.62567643  0.24712665  0.38373644
Al  0.62928974  0.38239436  0.25813868
Al  0.48999643  0.25627225  0.49935502
Al  0.49796721  0.38502975  0.62724580
Al  0.62430452  0.25166879  0.62749593
Al  0.61467977  0.37317844  0.50637909
Al  0.49493639  0.25133042  0.75154257
Al  0.49534688  0.37618114  0.86909990
Al  0.61246283  0.25121344  0.86485038
Al  0.62282704  0.38082335  0.74352853
Al  0.50348440  0.50148151  0.00898825
Al  0.49859317  0.62374629  0.13172456
Al  0.63072956  0.50103732  0.13011505
Al  0.62698283  0.62785259  0.00833124
Al  0.50116452  0.48931611  0.24883425
Al  0.50458482  0.61475673  0.38100075
Al  0.62957740  0.49402239  0.38181668
Al  0.62655074  0.62155853  0.25519562
Al  0.50115871  0.49541243  0.49810488
Al  0.50973680  0.61713381  0.62630168
Al  0.63118820  0.49631279  0.62401404
Al  0.62498572  0.61067461  0.49866825
Al  0.50907412  0.50153474  0.75901977
Al  0.51212343  0.62386323  0.88244495
Al  0.62239397  0.49705208  0.88343202
Al  0.62757424  0.61527633  0.74473006
Al  0.49936968  0.75141687  0.00098419
Al  0.50198259  0.87164597  0.13247901
Al  0.61759859  0.75078730  0.14208182
Al  0.62790966  0.87363482  0.01134898
Al  0.49648381  0.74798718  0.25575989
Al  0.49563886  0.87098031  0.37490084
Al  0.61975734  0.74992524  0.38173015
Al  0.63001577  0.87476567  0.25423197
Al  0.50069165  0.74864365  0.50712919
Al  0.51183280  0.87152323  0.63036879
Al  0.63128640  0.73926092  0.61850891
Al  0.62876440  0.86579297  0.49946341
Al  0.49769761  0.74656916  0.75232188
Al  0.50599556  0.87822282  0.88111163
Al  0.62828277  0.74851850  0.87818830
Al  0.62013637  0.87599170  0.76303239
Al  0.75686751  0.99492115  0.00088827
Al  0.74467843  0.12723427  0.11961291
Al  0.87556549  0.00369676  0.12621795
Al  0.87475810  0.12266938  0.99868019
Al  0.74609007  0.00163629  0.24752646
Al  0.75349991  0.12933425  0.37611815
Al  0.88095143  0.00133752  0.37711697
Al  0.87706767  0.11849743  0.24714141
Al  0.74362808  0.00703466  0.50528327
Al  0.75057559  0.13367993  0.62043474
Al  0.87015719  0.00376019  0.62411051
Al  0.87832474  0.11957331  0.50122298
Al  0.75440296  0.00266564  0.75438769
Al  0.75063391  0.12797922  0.87408035
Al  0.87500514  0.00969461  0.87268056
Al  0.87355340  0.12955559  0.75399544
Al  0.74541659  0.24490088  0.00407350
Al  0.75075681  0.39099472  0.11533268
Al  0.86431841  0.25660834  0.11255680
Al  0.86652423  0.37969599  0.99219682
Al  0.74146925  0.23987690  0.24834194
Al  0.75169720  0.37625628  0.37634352
Al  0.88890668  0.25086535  0.37728200
Al  0.86238571  0.36121717  0.24200173
Al  0.75146734  0.25403038  0.50718035
Al  0.74894394  0.36950948  0.62383741
Al  0.87442534  0.25501163  0.62503015
Al  0.87776574  0.37481735  0.50628054
Al  0.74617247  0.24906860  0.75596080
Al  0.75221802  0.37507914  0.87355096
Al  0.87896034  0.25760957  0.88390838
Al  0.86867608  0.38164705  0.74626903
Al  0.74189350  0.51020090  0.99834605
Al  0.74524061  0.62716394  0.13044927
Al  0.87170353  0.49891082  0.12002179
Al  0.86951405  0.62129397  0.00276830
Al  0.75203169  0.50093943  0.24050544
Al  0.75900617  0.61844580  0.36090421
Al  0.87814676  0.49591115  0.36355387
Al  0.87903888  0.62184363  0.24034326
Al  0.75162722  0.49628811  0.49270285
Al  0.74834445  0.62934556  0.61707414
Al  0.86376714  0.50616251  0.62149233
Al  0.87601835  0.61794319  0.49499002
Al  0.75832911  0.50299237  0.75301563
Al  0.75002999  0.63141690  0.87782568
Al  0.87777246  0.50587526  0.87233272
Al  0.88336963  0.62653265  0.75699366
Al  0.74583914  0.75416465  0.00348848
Al  0.75813025  0.87640517  0.12706117
Al  0.87928098  0.75005800  0.12474447
Al  0.88438720  0.87819211  0.00472541
Al  0.75998762  0.75236132  0.25078015
Al  0.76260167  0.87804941  0.36636549
Al  0.88099052  0.74935941  0.37229183
Al  0.88247979  0.86897661  0.25221829
Al  0.75248504  0.75642062  0.49706069
Al  0.74984275  0.87473162  0.62898769
Al  0.87611175  0.74487681  0.62710867
Al  0.88093126  0.87696450  0.49141002
Al  0.74834534  0.75930289  0.75569426
Al  0.75898225  0.88269616  0.86945006
Al  0.87028964  0.75236772  0.87807720
Al  0.87801602  0.87625452  0.74951145
 
