&CONTROL
  calculation='scf',
  verbosity='high',
  restart_mode='from_scratch',
  tstress=.false.,
  tprnfor=.true.,
  prefix='Al',
  pseudo_dir='/ascldap/users/namodin/MLDFT/pp/',
  outdir='out',
/
&SYSTEM
 ibrav=0,
 nosym=.true.,
 nat=256,
 ntyp=1,
 ecutwfc=100,
 ecutrho=400,
 occupations='smearing',
 smearing='fermi-dirac',
 degauss=0.00590928377
 nbnd=576
/
&ELECTRONS
 mixing_mode='plain',
 mixing_beta=0.2,
 conv_thr=0.000256,
/

ATOMIC_SPECIES
 Al  26.981539  Al.sr-pbesol.upf

K_POINTS automatic
 8 8 8 0 0 0

CELL_PARAMETERS angstrom
16.19800000000000 0.00000000000000 0.00000000000000
0.00000000000000 16.19800000000000 0.00000000000000
0.00000000000000 0.00000000000000 16.19800000000000

ATOMIC_POSITIONS crystal
Al    0.99356356     0.01003234     0.00089136
Al    0.98575032     0.10784255     0.14311819
Al    0.12807012     0.99852230     0.13484251
Al    0.10989125     0.12653909     0.00754698
Al    0.99878356     0.98912360     0.25217628
Al    0.99525099     0.12291132     0.40579143
Al    0.10611383     0.99632605     0.37614334
Al    0.10664056     0.12882222     0.26294333
Al    0.99591937     0.98413624     0.51004513
Al    0.99873239     0.11964307     0.63516025
Al    0.12971843     0.98524407     0.61614047
Al    0.13018385     0.12041564     0.52884396
Al    0.00208971     0.99522038     0.74327318
Al    0.01253943     0.14023697     0.89875777
Al    0.12106366     0.01531784     0.86781823
Al    0.12956652     0.11909856     0.73876577
Al    0.02979535     0.24871571     0.01054554
Al    0.01464289     0.38201263     0.13229357
Al    0.12182155     0.25149981     0.14253406
Al    0.12590822     0.38872776     0.99830530
Al    0.99093004     0.25894721     0.27317879
Al    0.99602139     0.39049519     0.39439336
Al    0.12671012     0.23775179     0.41706343
Al    0.10739525     0.37802063     0.27792375
Al    0.99999498     0.26184062     0.50700042
Al    0.01095485     0.37103636     0.62538640
Al    0.12370907     0.25512713     0.63086101
Al    0.13261428     0.39036405     0.51287211
Al    0.00432402     0.25285010     0.75523883
Al    0.00659139     0.37128221     0.88548254
Al    0.12972864     0.26206274     0.86786229
Al    0.13430250     0.38027196     0.76033850
Al    0.00258158     0.52051824     0.99403345
Al    0.00530641     0.61791722     0.12303543
Al    0.12448527     0.48735464     0.11630500
Al    0.13464893     0.61836395     0.99415827
Al    0.00225155     0.50050483     0.23070247
Al    0.01053709     0.60194789     0.37342236
Al    0.13869118     0.49572983     0.37383649
Al    0.12651329     0.62381920     0.23766416
Al    0.00762097     0.49942317     0.50285866
Al    0.99980680     0.63046327     0.61529426
Al    0.11974711     0.51537222     0.64109264
Al    0.13244798     0.61664118     0.49576361
Al    0.00736615     0.51490744     0.74392904
Al    0.99940384     0.61284340     0.86526765
Al    0.12169270     0.50044314     0.89618547
Al    0.11489764     0.64028970     0.75141705
Al    0.01586274     0.73555320     0.98553893
Al    0.00572588     0.85797060     0.11259533
Al    0.11854537     0.74277112     0.12396578
Al    0.12702961     0.88501137     0.99969620
Al    0.00924495     0.75172075     0.24043823
Al    0.97978514     0.86779037     0.37399871
Al    0.13199369     0.74460697     0.34998344
Al    0.13374326     0.86313364     0.23418417
Al    0.99961163     0.72979918     0.48927139
Al    0.01766119     0.86531167     0.62828693
Al    0.12352606     0.74884077     0.61307360
Al    0.12210593     0.85898068     0.48396704
Al    0.98478303     0.75002992     0.74060546
Al    0.98635845     0.86548458     0.87219614
Al    0.12385645     0.75495956     0.87511538
Al    0.12794609     0.88350612     0.74281708
Al    0.23281891     0.00683942     0.99845315
Al    0.24260286     0.12738938     0.12290146
Al    0.37319926     0.01604871     0.11133828
Al    0.37473305     0.12460102     0.99720594
Al    0.24957219     0.00950823     0.25267825
Al    0.26124499     0.13695771     0.38311453
Al    0.37195119     0.00445083     0.35773736
Al    0.38972988     0.11263582     0.25781414
Al    0.25141209     0.99457904     0.47453026
Al    0.27883910     0.12291896     0.61413592
Al    0.36879991     0.98963524     0.60746848
Al    0.38667358     0.12478710     0.48190908
Al    0.25305982     0.00921240     0.74336945
Al    0.24766462     0.12997246     0.86286458
Al    0.36915206     0.00779588     0.87171951
Al    0.37284756     0.13919954     0.74851621
Al    0.23065113     0.24321274     0.02171583
Al    0.24503152     0.35412918     0.14217556
Al    0.37642074     0.23243096     0.12604506
Al    0.35211490     0.34697485     0.02143041
Al    0.23439098     0.24562997     0.26084078
Al    0.25683578     0.37534243     0.39489128
Al    0.37913489     0.24801094     0.38742430
Al    0.36911931     0.38424552     0.26137548
Al    0.24756600     0.26698802     0.52545655
Al    0.24197568     0.38837382     0.63539973
Al    0.37413785     0.24821818     0.63050193
Al    0.39304087     0.38288625     0.51289106
Al    0.25453562     0.25266592     0.76308536
Al    0.25666988     0.38418381     0.87516202
Al    0.36189232     0.24441308     0.87851881
Al    0.37645368     0.37064658     0.74714361
Al    0.24095624     0.49707451     0.98612493
Al    0.25558784     0.61819079     0.10547977
Al    0.36037732     0.48043934     0.10902784
Al    0.36469897     0.62467287     0.00040859
Al    0.25076300     0.50086934     0.23483277
Al    0.27105230     0.61707349     0.35892034
Al    0.38488185     0.51051738     0.37533992
Al    0.36488260     0.62551518     0.23799240
Al    0.27029579     0.50307561     0.49210801
Al    0.26295349     0.62334039     0.62588465
Al    0.36903317     0.51652512     0.62682347
Al    0.37853376     0.62927934     0.50127062
Al    0.24372608     0.49811390     0.75521477
Al    0.23967853     0.63040389     0.86170476
Al    0.36649781     0.51369507     0.86400692
Al    0.36227678     0.63416902     0.74670007
Al    0.24986000     0.74573080     0.99761359
Al    0.24121059     0.88237354     0.11861331
Al    0.36388068     0.75204259     0.10948028
Al    0.34602111     0.87067128     0.97480433
Al    0.25928845     0.75271950     0.23418736
Al    0.24493557     0.86546187     0.36675790
Al    0.37091151     0.74415446     0.36708527
Al    0.36343262     0.89161499     0.23301950
Al    0.25603880     0.74242507     0.49913233
Al    0.25404950     0.86959241     0.63426666
Al    0.37309762     0.75767445     0.61889837
Al    0.38158614     0.87119960     0.49199500
Al    0.24206879     0.73566518     0.73749330
Al    0.24073126     0.87157190     0.86717599
Al    0.38304113     0.74107688     0.87729227
Al    0.36408259     0.85799339     0.75252114
Al    0.50513062     0.99641307     0.98400984
Al    0.50296346     0.11448407     0.12668005
Al    0.62334617     0.00081674     0.10975498
Al    0.61750462     0.12749031     0.00009284
Al    0.51024423     0.99838161     0.25179943
Al    0.51489566     0.11485434     0.37313705
Al    0.64582982     0.00199386     0.37353296
Al    0.61796938     0.12867744     0.24490015
Al    0.51716374     0.99973136     0.48138001
Al    0.50610684     0.12531688     0.63067543
Al    0.62036274     0.00178667     0.62155819
Al    0.62084175     0.12791261     0.50681745
Al    0.49832577     0.99575068     0.73836487
Al    0.50070010     0.14207927     0.87351497
Al    0.63908772     0.00569409     0.88160058
Al    0.63355509     0.12222953     0.75987675
Al    0.50038998     0.25762406     0.01340511
Al    0.48193974     0.37834507     0.13306162
Al    0.61140817     0.23758186     0.12714498
Al    0.63563834     0.37082311     0.99664333
Al    0.47615289     0.26037558     0.26170828
Al    0.50244274     0.38657000     0.38397936
Al    0.61447512     0.26576159     0.36920027
Al    0.62654667     0.36545813     0.23416209
Al    0.50543096     0.24073779     0.51048729
Al    0.50459825     0.38682566     0.61881449
Al    0.62855761     0.26430993     0.63207037
Al    0.63568155     0.38123575     0.50712325
Al    0.50967113     0.25120456     0.74106710
Al    0.48421989     0.36729941     0.88177216
Al    0.62384526     0.26301694     0.87186622
Al    0.63073225     0.36866811     0.75201037
Al    0.48097910     0.48390417     0.99821036
Al    0.50722141     0.64728210     0.11287231
Al    0.61881676     0.51277894     0.13060944
Al    0.63477511     0.61919051     0.99455981
Al    0.48687654     0.50626543     0.24284525
Al    0.47859383     0.62869280     0.35594998
Al    0.61413153     0.50701952     0.38002146
Al    0.62280048     0.62696908     0.27497080
Al    0.50294549     0.52214771     0.50004990
Al    0.50146342     0.62822278     0.62300088
Al    0.63162580     0.51446293     0.61988389
Al    0.61141308     0.63472036     0.48349964
Al    0.51260085     0.46918515     0.76028414
Al    0.51104040     0.60857060     0.89485797
Al    0.65011959     0.49446663     0.87902306
Al    0.61362423     0.62093954     0.75813041
Al    0.48710437     0.75745600     0.99501901
Al    0.48973515     0.86789951     0.09837923
Al    0.63616173     0.74976861     0.12205086
Al    0.61393755     0.88107241     0.00121918
Al    0.49251403     0.76169421     0.23530339
Al    0.48843469     0.86577219     0.36627813
Al    0.60980726     0.75511509     0.38136663
Al    0.63006496     0.89021637     0.25609292
Al    0.50317495     0.75413157     0.50360256
Al    0.50186666     0.86110304     0.61274668
Al    0.62591280     0.73642028     0.63902310
Al    0.62635617     0.86957077     0.50039669
Al    0.48848703     0.74126400     0.75365852
Al    0.48830430     0.89929262     0.87274161
Al    0.60419105     0.75863399     0.88220727
Al    0.60897796     0.87202443     0.75776707
Al    0.75198199     0.99514896     0.99067194
Al    0.74437405     0.11725698     0.11920301
Al    0.88952245     0.98274769     0.11531456
Al    0.87028913     0.12588560     0.00787712
Al    0.75365490     0.00061326     0.23774267
Al    0.74578279     0.14348118     0.37030803
Al    0.87559753     0.00289877     0.37717284
Al    0.86859827     0.11175353     0.25779592
Al    0.76189478     0.99350554     0.50477659
Al    0.74128373     0.12545870     0.63043970
Al    0.88529468     0.00275624     0.61235046
Al    0.85535532     0.13345023     0.50518137
Al    0.76889044     0.02237831     0.76412046
Al    0.74708388     0.13464176     0.88235626
Al    0.88898039     0.97942093     0.86774633
Al    0.90108592     0.12092111     0.77053068
Al    0.75532731     0.25389389     0.01334853
Al    0.74021578     0.38131483     0.11953630
Al    0.88138249     0.23845556     0.12745773
Al    0.89094944     0.36508644     0.00523307
Al    0.75431519     0.24787375     0.22378998
Al    0.75943440     0.38120771     0.36654359
Al    0.87415826     0.24436743     0.38648693
Al    0.87703009     0.36167569     0.26034223
Al    0.75796453     0.26249101     0.50398517
Al    0.76349973     0.38560940     0.63662388
Al    0.88315901     0.25170637     0.62818998
Al    0.87181258     0.36382161     0.50864451
Al    0.77820221     0.24752534     0.75132653
Al    0.76996909     0.36273668     0.88154811
Al    0.87893323     0.24322421     0.88438692
Al    0.87131771     0.40206408     0.74936811
Al    0.75595322     0.50634839     0.00512157
Al    0.75419889     0.63612856     0.15389514
Al    0.87950252     0.50493572     0.13697031
Al    0.86711156     0.64367810     0.00025671
Al    0.73854042     0.50230799     0.26121321
Al    0.76718935     0.59600012     0.37447511
Al    0.89096036     0.49190123     0.35505283
Al    0.87160994     0.61211988     0.25373954
Al    0.74202255     0.49273495     0.50505658
Al    0.74787670     0.61804328     0.61136827
Al    0.88110310     0.50937986     0.62923862
Al    0.87509207     0.61073232     0.48931031
Al    0.74702002     0.50347998     0.74961012
Al    0.73619298     0.62628413     0.87284646
Al    0.88140637     0.51382436     0.88158995
Al    0.85403888     0.63099412     0.74884340
Al    0.74123069     0.77509948     0.00205987
Al    0.75265569     0.89651831     0.10672897
Al    0.87799168     0.74945915     0.12091763
Al    0.88885237     0.85893169     0.99713137
Al    0.74546051     0.76042638     0.25358915
Al    0.76622972     0.86281674     0.37754999
Al    0.88245870     0.72775273     0.37174090
Al    0.87867874     0.86315492     0.25152519
Al    0.74554072     0.77004286     0.51338619
Al    0.73128958     0.88528307     0.63568263
Al    0.87388715     0.72935706     0.60818655
Al    0.87314642     0.85904168     0.51145345
Al    0.75249519     0.75486973     0.74441073
Al    0.73301069     0.87728214     0.87216128
Al    0.86527550     0.73970698     0.87581861
Al    0.87501572     0.86803272     0.72360716
