&CONTROL
  calculation='scf',
  verbosity='high',
  restart_mode='from_scratch',
  tstress=.false.,
  tprnfor=.true.,
  prefix='Al',
  pseudo_dir='/ascldap/users/namodin/MLDFT/pp/',
  outdir='out',
/
&SYSTEM
 ibrav=0,
 nosym=.true.,
 nat=256,
 ntyp=1,
 ecutwfc=100,
 ecutrho=400,
 occupations='smearing',
 smearing='fermi-dirac',
 degauss=0.00590928377
 nbnd=576
/
&ELECTRONS
 mixing_mode='plain',
 mixing_beta=0.2,
 conv_thr=0.000256,
/

ATOMIC_SPECIES
 Al  26.981539  Al.sr-pbesol.upf

K_POINTS automatic
 8 8 8 0 0 0

CELL_PARAMETERS angstrom
16.19800000000000 0.00000000000000 0.00000000000000
0.00000000000000 16.19800000000000 0.00000000000000
0.00000000000000 0.00000000000000 16.19800000000000

ATOMIC_POSITIONS crystal
Al    0.62108581     0.64054929     0.21771043
Al    0.83291078     0.44541570     0.66671615
Al    0.02631386     0.61955137     0.78724707
Al    0.27217058     0.88824020     0.88897111
Al    0.34215281     0.64502695     0.03923128
Al    0.46776104     0.12527433     0.07375344
Al    0.54389706     0.64185463     0.46557682
Al    0.16353054     0.76477892     0.23643026
Al    0.12764435     0.87098716     0.57697039
Al    0.88332670     0.10489691     0.26906817
Al    0.84968378     0.98328601     0.94631548
Al    0.33783950     0.30774924     0.84222685
Al    0.10433379     0.35347123     0.16866283
Al    0.71283370     0.45953383     0.78284027
Al    0.46721816     0.06700196     0.33920024
Al    0.50468454     0.45747278     0.17292427
Al    0.11178981     0.96569966     0.44760401
Al    0.68304449     0.97206547     0.46365167
Al    0.82413381     0.53298289     0.52393630
Al    0.07353224     0.34860860     0.41369435
Al    0.98430228     0.95071125     0.60134460
Al    0.73027445     0.04996070     0.16915048
Al    0.32989219     0.27050096     0.37085113
Al    0.35435035     0.49969171     0.12329664
Al    0.61474621     0.22222238     0.06674680
Al    0.05229603     0.59951027     0.24098251
Al    0.47393874     0.80465902     0.39436573
Al    0.84335088     0.67254999     0.62033416
Al    0.37035797     0.17093772     0.73467519
Al    0.14885556     0.69702020     0.50962572
Al    0.18757527     0.93785112     0.76121441
Al    0.70948197     0.66569975     0.49119417
Al    0.52083894     0.42725531     0.50902587
Al    0.05983025     0.79215367     0.85971163
Al    0.01197121     0.09071888     0.47348885
Al    0.34929195     0.84249674     0.50181846
Al    0.90753173     0.03421916     0.73474865
Al    0.25543497     0.92379574     0.28321770
Al    0.47190534     0.61447019     0.16420777
Al    0.77406881     0.44011630     0.35828740
Al    0.20996399     0.20401427     0.81000389
Al    0.94699717     0.95041329     0.21273335
Al    0.58591604     0.37644514     0.91171571
Al    0.05970940     0.36493387     0.00701442
Al    0.54542817     0.54995238     0.59814255
Al    0.47400902     0.84208232     0.59629371
Al    0.53444494     0.51974005     0.32300725
Al    0.48532211     0.67887486     0.88988820
Al    0.83214198     0.58576721     0.75057875
Al    0.08536208     0.82443726     0.04666791
Al    0.44627532     0.44800916     0.84506562
Al    0.74542801     0.28544169     0.64327078
Al    0.67981199     0.48377363     0.20260465
Al    0.20507384     0.36126801     0.33150372
Al    0.78197092     0.28204411     0.08274986
Al    0.59562130     0.80828940     0.49362247
Al    0.81047617     0.36890542     0.22580180
Al    0.18909018     0.64254856     0.34320030
Al    0.35417481     0.82115820     0.01602270
Al    0.78285070     0.94791713     0.31739830
Al    0.35074287     0.83974540     0.72970552
Al    0.83142401     0.03304571     0.52922412
Al    0.24578633     0.45492951     0.59769877
Al    0.65285019     0.74642030     0.10254922
Al    0.93251953     0.63717668     0.91105943
Al    0.37673334     0.98265122     0.96829478
Al    0.00894253     0.80915403     0.48972751
Al    0.11180212     0.68315701     0.11532893
Al    0.93471066     0.97192956     0.39217134
Al    0.22211061     0.49687765     0.42270738
Al    0.75012143     0.41664461     0.93860648
Al    0.68447103     0.98710860     0.92863003
Al    0.53764527     0.77970294     0.21613632
Al    0.86237836     0.13453489     0.10927819
Al    0.20185618     0.57099749     0.04989245
Al    0.48363787     0.26610135     0.81044003
Al    0.15186446     0.18379008     0.60927833
Al    0.84201233     0.79915884     0.12889553
Al    0.34756681     0.01176107     0.17682145
Al    0.20914305     0.30737013     0.49085788
Al    0.67238933     0.43963097     0.59559968
Al    0.35515725     0.37336073     0.51505990
Al    0.62361772     0.40440904     0.07619316
Al    0.00661597     0.25483175     0.52867065
Al    0.59286121     0.71697868     0.61693698
Al    0.24045197     0.39185008     0.08088622
Al    0.78486887     0.49041038     0.07504823
Al    0.22045665     0.10520203     0.48488285
Al    0.73638490     0.11089319     0.83058605
Al    0.47780703     0.26379665     0.97971244
Al    0.34509515     0.64427726     0.73973158
Al    0.39642584     0.14286614     0.89444349
Al    0.95722566     0.67806959     0.06516717
Al    0.58292489     0.16179910     0.90273659
Al    0.89518657     0.51572245     0.21567843
Al    0.40298402     0.01339664     0.59515333
Al    0.56975639     0.01756603     0.59748122
Al    0.09871082     0.34656382     0.59327940
Al    0.32760968     0.22892564     0.59144442
Al    0.26843823     0.60324546     0.55698987
Al    0.59964510     0.38267912     0.38152437
Al    0.57825439     0.29371542     0.64752101
Al    0.60070159     0.04253796     0.06390030
Al    0.74762777     0.84441796     0.98659913
Al    0.91821039     0.35020570     0.37850700
Al    0.08219912     0.66313462     0.96069564
Al    0.48167849     0.93858924     0.73167282
Al    0.24058679     0.96411388     0.03558089
Al    0.34319364     0.35944277     0.22240570
Al    0.12923950     0.02565323     0.60779287
Al    0.20576023     0.75638458     0.95056796
Al    0.07497843     0.04637210     0.31543248
Al    0.30502832     0.12753752     0.03350405
Al    0.01492240     0.08787266     0.14870321
Al    0.80682819     0.89173462     0.80733484
Al    0.91597906     0.28726329     0.67839686
Al    0.14223667     0.21450574     0.08581469
Al    0.50130681     0.76091878     0.75109153
Al    0.62960468     0.85353535     0.83983330
Al    0.93586034     0.74855810     0.77554407
Al    0.14004230     0.49321540     0.75149219
Al    0.95884008     0.54953030     0.67642352
Al    0.05124769     0.23896242     0.76040441
Al    0.91154887     0.24120648     0.21697956
Al    0.08681299     0.07483685     0.77530806
Al    0.06043411     0.72608530     0.63681672
Al    0.39202400     0.49708287     0.60632040
Al    0.41329826     0.40448743     0.01888096
Al    0.96746934     0.43983702     0.51643000
Al    0.93927153     0.33254998     0.89050645
Al    0.39213106     0.54738539     0.45161588
Al    0.56770597     0.15345694     0.21426193
Al    0.39631546     0.79042534     0.17195863
Al    0.86500793     0.84191625     0.67083573
Al    0.51931762     0.01465624     0.92230576
Al    0.74086530     0.80882362     0.56629875
Al    0.76329834     0.10386745     0.39640256
Al    0.49746047     0.17753970     0.60715492
Al    0.33487403     0.72685812     0.87344259
Al    0.48535201     0.28604982     0.30399438
Al    0.43173421     0.91103684     0.28976779
Al    0.51520089     0.93626805     0.46150447
Al    0.38306187     0.14074309     0.46452298
Al    0.60824538     0.87964575     0.33153387
Al    0.61914856     0.66465746     0.79715259
Al    0.71706044     0.12501043     0.98758864
Al    0.86701725     0.88279877     0.50225596
Al    0.40753992     0.70185386     0.59135321
Al    0.49515300     0.28646290     0.15044068
Al    0.17343401     0.63877765     0.70612133
Al    0.66234521     0.27762483     0.50338706
Al    0.24334701     0.75396338     0.61899310
Al    0.83415645     0.94659398     0.10624057
Al    0.72456858     0.78590195     0.25423966
Al    0.74270810     0.18993641     0.22983375
Al    0.12189429     0.93473560     0.93029157
Al    0.50230340     0.71700250     0.04005277
Al    0.90069673     0.81686147     0.32798932
Al    0.01439921     0.40385680     0.72507715
Al    0.14726886     0.36313798     0.85439998
Al    0.39281495     0.18444201     0.23289209
Al    0.73882543     0.75165513     0.72369933
Al    0.64352216     0.31101485     0.21345625
Al    0.61375903     0.19483124     0.36964126
Al    0.23395303     0.81475404     0.11327353
Al    0.35028507     0.00296589     0.78987603
Al    0.78911242     0.73475872     0.86066437
Al    0.65192858     0.89803728     0.14203202
Al    0.75051263     0.99522843     0.65386191
Al    0.76022681     0.28281816     0.36806117
Al    0.84657953     0.20647752     0.95416932
Al    0.08601102     0.20866154     0.90856527
Al    0.66467567     0.51388873     0.44757924
Al    0.31273250     0.70198866     0.45334566
Al    0.07886093     0.20840252     0.23707782
Al    0.10994505     0.52203555     0.55636925
Al    0.89400507     0.65704805     0.26968233
Al    0.02322961     0.43907581     0.27747353
Al    0.33784952     0.26112874     0.09493391
Al    0.31878910     0.78819615     0.31782494
Al    0.22743011     0.31345241     0.71435082
Al    0.20497997     0.60102316     0.87044594
Al    0.25628518     0.94228232     0.59453422
Al    0.28101473     0.09361818     0.33300714
Al    0.77574934     0.63917399     0.16442398
Al    0.14452694     0.20474115     0.39161117
Al    0.53234308     0.99926071     0.20208819
Al    0.63378491     0.99903361     0.77586072
Al    0.23550670     0.28836264     0.96073115
Al    0.29369618     0.66519510     0.20811408
Al    0.94272333     0.39507321     0.13707073
Al    0.81896691     0.13715820     0.67504494
Al    0.90757578     0.54416971     0.38833380
Al    0.42365839     0.66576657     0.32648295
Al    0.63906596     0.29587480     0.79165633
Al    0.92445285     0.17432372     0.81665280
Al    0.32445922     0.52053883     0.30147675
Al    0.80242064     0.30556526     0.79765086
Al    0.98352329     0.95397209     0.02992284
Al    0.46168605     0.85457732     0.89338350
Al    0.74750146     0.81973142     0.40951112
Al    0.18680816     0.08649793     0.16117706
Al    0.54306534     0.43687518     0.71205279
Al    0.24477140     0.22984340     0.24393662
Al    0.85368492     0.69561215     0.43472736
Al    0.39258827     0.34960603     0.68389374
Al    0.73221268     0.60467499     0.33884472
Al    0.06616104     0.54858473     0.40171580
Al    0.70368449     0.11973518     0.55734597
Al    0.03844527     0.71744260     0.35284579
Al    0.97012372     0.94077687     0.84673214
Al    0.47151588     0.94024276     0.08249191
Al    0.97473010     0.18583872     0.36372816
Al    0.06857245     0.50859058     0.92758425
Al    0.59790018     0.53174843     0.88691581
Al    0.80745861     0.37806373     0.50424768
Al    0.64220558     0.14539471     0.70949592
Al    0.58777596     0.86835463     0.00105926
Al    0.41653639     0.41799513     0.37155293
Al    0.49739037     0.54631390     0.00190262
Al    0.06604427     0.86929638     0.32488679
Al    0.64284842     0.71117348     0.94505155
Al    0.91344810     0.48448815     0.83538811
Al    0.97440029     0.09542063     0.94315710
Al    0.81429142     0.69038477     0.01080191
Al    0.91069891     0.82049739     0.93548689
Al    0.84839205     0.20277490     0.53899341
Al    0.99145195     0.13425309     0.63944509
Al    0.30048932     0.48616708     0.75459260
Al    0.64043008     0.04407971     0.31923162
Al    0.18913884     0.50901438     0.20370389
Al    0.47797093     0.27077048     0.47333010
Al    0.22648964     0.06909235     0.88501336
Al    0.33923478     0.98060433     0.43153221
Al    0.60442924     0.71556781     0.35427854
Al    0.66460179     0.58292982     0.04251515
Al    0.48874852     0.58288300     0.75034825
Al    0.97270806     0.23825617     0.03988598
Al    0.37221880     0.57368795     0.89702246
Al    0.99064983     0.62524755     0.51357068
Al    0.19558560     0.81094938     0.39352152
Al    0.27006344     0.45471270     0.91188303
Al    0.55821711     0.09725552     0.47100498
Al    0.76377880     0.58071576     0.89375485
Al    0.71252063     0.27369364     0.93685153
Al    0.12050162     0.91889284     0.17249126
Al    0.91489163     0.46147608     0.98941428
Al    0.02718933     0.87312592     0.72057604
Al    0.20671734     0.76885833     0.77970135
Al    0.49366876     0.10341861     0.76371770
Al    0.00600166     0.78443680     0.18002335
Al    0.62224981     0.86429787     0.67252083
Al    0.69585498     0.59298076     0.66237448
Al    0.26711828     0.08893515     0.66650479
Al    0.05242168     0.52093345     0.09240899
Al    0.11795383     0.06836059     0.01163851
