&CONTROL
  calculation='scf',
  verbosity='high',
  restart_mode='from_scratch',
  tstress=.false.,
  tprnfor=.true.,
  prefix='Al',
  pseudo_dir='/ascldap/users/namodin/MLDFT/pp/',
  outdir='out',
/
&SYSTEM
 ibrav=0,
 nosym=.true.,
 nat=256,
 ntyp=1,
 ecutwfc=100,
 ecutrho=400,
 occupations='smearing',
 smearing='fermi-dirac',
 degauss=0.0019,
 nbnd=576
/
&ELECTRONS
 mixing_mode='plain',
 mixing_beta=0.2,
 conv_thr=0.000256,
/

ATOMIC_SPECIES
 Al  26.981539  Al.sr-pbesol.upf

K_POINTS automatic
 1 1 1 0 0 0

CELL_PARAMETERS angstrom
16.19800000000000 0.00000000000000 0.00000000000000
0.00000000000000 16.19800000000000 0.00000000000000
0.00000000000000 0.00000000000000 16.19800000000000

ATOMIC_POSITIONS crystal
Al    0.0000000000   0.0000000000   0.0000000000
Al    0.0000000000   0.1250000000   0.1250000000
Al    0.1250000000   0.0000000000   0.1250000000
Al    0.1250000000   0.1250000000   0.0000000000
Al    0.0000000000   0.0000000000   0.2500000000
Al    0.0000000000   0.1250000000   0.3750000000
Al    0.1250000000   0.0000000000   0.3750000000
Al    0.1250000000   0.1250000000   0.2500000000
Al    0.0000000000   0.0000000000   0.5000000000
Al    0.0000000000   0.1250000000   0.6250000000
Al    0.1250000000   0.0000000000   0.6250000000
Al    0.1250000000   0.1250000000   0.5000000000
Al    0.0000000000   0.0000000000   0.7500000000
Al    0.0000000000   0.1250000000   0.8750000000
Al    0.1250000000   0.0000000000   0.8750000000
Al    0.1250000000   0.1250000000   0.7500000000
Al    0.0000000000   0.2500000000   0.0000000000
Al    0.0000000000   0.3750000000   0.1250000000
Al    0.1250000000   0.2500000000   0.1250000000
Al    0.1250000000   0.3750000000   0.0000000000
Al    0.0000000000   0.2500000000   0.2500000000
Al    0.0000000000   0.3750000000   0.3750000000
Al    0.1250000000   0.2500000000   0.3750000000
Al    0.1250000000   0.3750000000   0.2500000000
Al    0.0000000000   0.2500000000   0.5000000000
Al    0.0000000000   0.3750000000   0.6250000000
Al    0.1250000000   0.2500000000   0.6250000000
Al    0.1250000000   0.3750000000   0.5000000000
Al    0.0000000000   0.2500000000   0.7500000000
Al    0.0000000000   0.3750000000   0.8750000000
Al    0.1250000000   0.2500000000   0.8750000000
Al    0.1250000000   0.3750000000   0.7500000000
Al    0.0000000000   0.5000000000   0.0000000000
Al    0.0000000000   0.6250000000   0.1250000000
Al    0.1250000000   0.5000000000   0.1250000000
Al    0.1250000000   0.6250000000   0.0000000000
Al    0.0000000000   0.5000000000   0.2500000000
Al    0.0000000000   0.6250000000   0.3750000000
Al    0.1250000000   0.5000000000   0.3750000000
Al    0.1250000000   0.6250000000   0.2500000000
Al    0.0000000000   0.5000000000   0.5000000000
Al    0.0000000000   0.6250000000   0.6250000000
Al    0.1250000000   0.5000000000   0.6250000000
Al    0.1250000000   0.6250000000   0.5000000000
Al    0.0000000000   0.5000000000   0.7500000000
Al    0.0000000000   0.6250000000   0.8750000000
Al    0.1250000000   0.5000000000   0.8750000000
Al    0.1250000000   0.6250000000   0.7500000000
Al    0.0000000000   0.7500000000   0.0000000000
Al    0.0000000000   0.8750000000   0.1250000000
Al    0.1250000000   0.7500000000   0.1250000000
Al    0.1250000000   0.8750000000   0.0000000000
Al    0.0000000000   0.7500000000   0.2500000000
Al    0.0000000000   0.8750000000   0.3750000000
Al    0.1250000000   0.7500000000   0.3750000000
Al    0.1250000000   0.8750000000   0.2500000000
Al    0.0000000000   0.7500000000   0.5000000000
Al    0.0000000000   0.8750000000   0.6250000000
Al    0.1250000000   0.7500000000   0.6250000000
Al    0.1250000000   0.8750000000   0.5000000000
Al    0.0000000000   0.7500000000   0.7500000000
Al    0.0000000000   0.8750000000   0.8750000000
Al    0.1250000000   0.7500000000   0.8750000000
Al    0.1250000000   0.8750000000   0.7500000000
Al    0.2500000000   0.0000000000   0.0000000000
Al    0.2500000000   0.1250000000   0.1250000000
Al    0.3750000000   0.0000000000   0.1250000000
Al    0.3750000000   0.1250000000   0.0000000000
Al    0.2500000000   0.0000000000   0.2500000000
Al    0.2500000000   0.1250000000   0.3750000000
Al    0.3750000000   0.0000000000   0.3750000000
Al    0.3750000000   0.1250000000   0.2500000000
Al    0.2500000000   0.0000000000   0.5000000000
Al    0.2500000000   0.1250000000   0.6250000000
Al    0.3750000000   0.0000000000   0.6250000000
Al    0.3750000000   0.1250000000   0.5000000000
Al    0.2500000000   0.0000000000   0.7500000000
Al    0.2500000000   0.1250000000   0.8750000000
Al    0.3750000000   0.0000000000   0.8750000000
Al    0.3750000000   0.1250000000   0.7500000000
Al    0.2500000000   0.2500000000   0.0000000000
Al    0.2500000000   0.3750000000   0.1250000000
Al    0.3750000000   0.2500000000   0.1250000000
Al    0.3750000000   0.3750000000   0.0000000000
Al    0.2500000000   0.2500000000   0.2500000000
Al    0.2500000000   0.3750000000   0.3750000000
Al    0.3750000000   0.2500000000   0.3750000000
Al    0.3750000000   0.3750000000   0.2500000000
Al    0.2500000000   0.2500000000   0.5000000000
Al    0.2500000000   0.3750000000   0.6250000000
Al    0.3750000000   0.2500000000   0.6250000000
Al    0.3750000000   0.3750000000   0.5000000000
Al    0.2500000000   0.2500000000   0.7500000000
Al    0.2500000000   0.3750000000   0.8750000000
Al    0.3750000000   0.2500000000   0.8750000000
Al    0.3750000000   0.3750000000   0.7500000000
Al    0.2500000000   0.5000000000   0.0000000000
Al    0.2500000000   0.6250000000   0.1250000000
Al    0.3750000000   0.5000000000   0.1250000000
Al    0.3750000000   0.6250000000   0.0000000000
Al    0.2500000000   0.5000000000   0.2500000000
Al    0.2500000000   0.6250000000   0.3750000000
Al    0.3750000000   0.5000000000   0.3750000000
Al    0.3750000000   0.6250000000   0.2500000000
Al    0.2500000000   0.5000000000   0.5000000000
Al    0.2500000000   0.6250000000   0.6250000000
Al    0.3750000000   0.5000000000   0.6250000000
Al    0.3750000000   0.6250000000   0.5000000000
Al    0.2500000000   0.5000000000   0.7500000000
Al    0.2500000000   0.6250000000   0.8750000000
Al    0.3750000000   0.5000000000   0.8750000000
Al    0.3750000000   0.6250000000   0.7500000000
Al    0.2500000000   0.7500000000   0.0000000000
Al    0.2500000000   0.8750000000   0.1250000000
Al    0.3750000000   0.7500000000   0.1250000000
Al    0.3750000000   0.8750000000   0.0000000000
Al    0.2500000000   0.7500000000   0.2500000000
Al    0.2500000000   0.8750000000   0.3750000000
Al    0.3750000000   0.7500000000   0.3750000000
Al    0.3750000000   0.8750000000   0.2500000000
Al    0.2500000000   0.7500000000   0.5000000000
Al    0.2500000000   0.8750000000   0.6250000000
Al    0.3750000000   0.7500000000   0.6250000000
Al    0.3750000000   0.8750000000   0.5000000000
Al    0.2500000000   0.7500000000   0.7500000000
Al    0.2500000000   0.8750000000   0.8750000000
Al    0.3750000000   0.7500000000   0.8750000000
Al    0.3750000000   0.8750000000   0.7500000000
Al    0.5000000000   0.0000000000   0.0000000000
Al    0.5000000000   0.1250000000   0.1250000000
Al    0.6250000000   0.0000000000   0.1250000000
Al    0.6250000000   0.1250000000   0.0000000000
Al    0.5000000000   0.0000000000   0.2500000000
Al    0.5000000000   0.1250000000   0.3750000000
Al    0.6250000000   0.0000000000   0.3750000000
Al    0.6250000000   0.1250000000   0.2500000000
Al    0.5000000000   0.0000000000   0.5000000000
Al    0.5000000000   0.1250000000   0.6250000000
Al    0.6250000000   0.0000000000   0.6250000000
Al    0.6250000000   0.1250000000   0.5000000000
Al    0.5000000000   0.0000000000   0.7500000000
Al    0.5000000000   0.1250000000   0.8750000000
Al    0.6250000000   0.0000000000   0.8750000000
Al    0.6250000000   0.1250000000   0.7500000000
Al    0.5000000000   0.2500000000   0.0000000000
Al    0.5000000000   0.3750000000   0.1250000000
Al    0.6250000000   0.2500000000   0.1250000000
Al    0.6250000000   0.3750000000   0.0000000000
Al    0.5000000000   0.2500000000   0.2500000000
Al    0.5000000000   0.3750000000   0.3750000000
Al    0.6250000000   0.2500000000   0.3750000000
Al    0.6250000000   0.3750000000   0.2500000000
Al    0.5000000000   0.2500000000   0.5000000000
Al    0.5000000000   0.3750000000   0.6250000000
Al    0.6250000000   0.2500000000   0.6250000000
Al    0.6250000000   0.3750000000   0.5000000000
Al    0.5000000000   0.2500000000   0.7500000000
Al    0.5000000000   0.3750000000   0.8750000000
Al    0.6250000000   0.2500000000   0.8750000000
Al    0.6250000000   0.3750000000   0.7500000000
Al    0.5000000000   0.5000000000   0.0000000000
Al    0.5000000000   0.6250000000   0.1250000000
Al    0.6250000000   0.5000000000   0.1250000000
Al    0.6250000000   0.6250000000   0.0000000000
Al    0.5000000000   0.5000000000   0.2500000000
Al    0.5000000000   0.6250000000   0.3750000000
Al    0.6250000000   0.5000000000   0.3750000000
Al    0.6250000000   0.6250000000   0.2500000000
Al    0.5000000000   0.5000000000   0.5000000000
Al    0.5000000000   0.6250000000   0.6250000000
Al    0.6250000000   0.5000000000   0.6250000000
Al    0.6250000000   0.6250000000   0.5000000000
Al    0.5000000000   0.5000000000   0.7500000000
Al    0.5000000000   0.6250000000   0.8750000000
Al    0.6250000000   0.5000000000   0.8750000000
Al    0.6250000000   0.6250000000   0.7500000000
Al    0.5000000000   0.7500000000   0.0000000000
Al    0.5000000000   0.8750000000   0.1250000000
Al    0.6250000000   0.7500000000   0.1250000000
Al    0.6250000000   0.8750000000   0.0000000000
Al    0.5000000000   0.7500000000   0.2500000000
Al    0.5000000000   0.8750000000   0.3750000000
Al    0.6250000000   0.7500000000   0.3750000000
Al    0.6250000000   0.8750000000   0.2500000000
Al    0.5000000000   0.7500000000   0.5000000000
Al    0.5000000000   0.8750000000   0.6250000000
Al    0.6250000000   0.7500000000   0.6250000000
Al    0.6250000000   0.8750000000   0.5000000000
Al    0.5000000000   0.7500000000   0.7500000000
Al    0.5000000000   0.8750000000   0.8750000000
Al    0.6250000000   0.7500000000   0.8750000000
Al    0.6250000000   0.8750000000   0.7500000000
Al    0.7500000000   0.0000000000   0.0000000000
Al    0.7500000000   0.1250000000   0.1250000000
Al    0.8750000000   0.0000000000   0.1250000000
Al    0.8750000000   0.1250000000   0.0000000000
Al    0.7500000000   0.0000000000   0.2500000000
Al    0.7500000000   0.1250000000   0.3750000000
Al    0.8750000000   0.0000000000   0.3750000000
Al    0.8750000000   0.1250000000   0.2500000000
Al    0.7500000000   0.0000000000   0.5000000000
Al    0.7500000000   0.1250000000   0.6250000000
Al    0.8750000000   0.0000000000   0.6250000000
Al    0.8750000000   0.1250000000   0.5000000000
Al    0.7500000000   0.0000000000   0.7500000000
Al    0.7500000000   0.1250000000   0.8750000000
Al    0.8750000000   0.0000000000   0.8750000000
Al    0.8750000000   0.1250000000   0.7500000000
Al    0.7500000000   0.2500000000   0.0000000000
Al    0.7500000000   0.3750000000   0.1250000000
Al    0.8750000000   0.2500000000   0.1250000000
Al    0.8750000000   0.3750000000   0.0000000000
Al    0.7500000000   0.2500000000   0.2500000000
Al    0.7500000000   0.3750000000   0.3750000000
Al    0.8750000000   0.2500000000   0.3750000000
Al    0.8750000000   0.3750000000   0.2500000000
Al    0.7500000000   0.2500000000   0.5000000000
Al    0.7500000000   0.3750000000   0.6250000000
Al    0.8750000000   0.2500000000   0.6250000000
Al    0.8750000000   0.3750000000   0.5000000000
Al    0.7500000000   0.2500000000   0.7500000000
Al    0.7500000000   0.3750000000   0.8750000000
Al    0.8750000000   0.2500000000   0.8750000000
Al    0.8750000000   0.3750000000   0.7500000000
Al    0.7500000000   0.5000000000   0.0000000000
Al    0.7500000000   0.6250000000   0.1250000000
Al    0.8750000000   0.5000000000   0.1250000000
Al    0.8750000000   0.6250000000   0.0000000000
Al    0.7500000000   0.5000000000   0.2500000000
Al    0.7500000000   0.6250000000   0.3750000000
Al    0.8750000000   0.5000000000   0.3750000000
Al    0.8750000000   0.6250000000   0.2500000000
Al    0.7500000000   0.5000000000   0.5000000000
Al    0.7500000000   0.6250000000   0.6250000000
Al    0.8750000000   0.5000000000   0.6250000000
Al    0.8750000000   0.6250000000   0.5000000000
Al    0.7500000000   0.5000000000   0.7500000000
Al    0.7500000000   0.6250000000   0.8750000000
Al    0.8750000000   0.5000000000   0.8750000000
Al    0.8750000000   0.6250000000   0.7500000000
Al    0.7500000000   0.7500000000   0.0000000000
Al    0.7500000000   0.8750000000   0.1250000000
Al    0.8750000000   0.7500000000   0.1250000000
Al    0.8750000000   0.8750000000   0.0000000000
Al    0.7500000000   0.7500000000   0.2500000000
Al    0.7500000000   0.8750000000   0.3750000000
Al    0.8750000000   0.7500000000   0.3750000000
Al    0.8750000000   0.8750000000   0.2500000000
Al    0.7500000000   0.7500000000   0.5000000000
Al    0.7500000000   0.8750000000   0.6250000000
Al    0.8750000000   0.7500000000   0.6250000000
Al    0.8750000000   0.8750000000   0.5000000000
Al    0.7500000000   0.7500000000   0.7500000000
Al    0.7500000000   0.8750000000   0.8750000000
Al    0.8750000000   0.7500000000   0.8750000000
Al    0.8750000000   0.8750000000   0.7500000000
