&inputpp
 outdir='temp',
 prefix='Al',
 plot_num=0,
/
&plot
 iflag=3,
 output_format=6,
 fileout='Al_dens.cube',
/
