&inputpp
 outdir='/home/fiedle09/jobs/qe/Al36/for_fesl',
 prefix='Al',
 plot_num=0,
/
&plot
 iflag=3,
 output_format=6,
 fileout='Al_dens.cube',
/
