&inputpp
 outdir='/home/fiedle09/jobs/qe/Al36/for_fesl',
 prefix='Al',
 plot_num=3,
 emin=-10.0,
 emax=15.0,
 delta_e=0.1,
 degauss_ldos=0.2,
/
&plot
 iflag=3,
 output_format=6,
 fileout='Al_ldos.cube',
/
