Al.scf.pw
&CONTROL
  calculation='scf'
  restart_mode='from_scratch'
  tstress=.true.
  tprnfor=.true.
  prefix='Al'
  pseudo_dir='/home/fiedle09/tools/PPs/pbe'
  outdir='/home/fiedle09/jobs/qe/Al36/for_fesl'
/
&SYSTEM
 ibrav=0
 nat=36
 ntyp=1
 nbnd=200
 ecutwfc=100
 ecutrho=400
 occupations='smearing'
 smearing='fermi-dirac'
 degauss=0.0019
/
&ELECTRONS
 mixing_mode='plain'
 mixing_beta=0.7
 conv_thr=1.0d-8
/
ATOMIC_SPECIES
 Al  26.981539  Al.pbe-n-rrkjus_psl.1.0.0.UPF
 
K_POINTS automatic
 6 6 6 0 0 0
 
CELL_PARAMETERS angstrom
  8.582861487       0.000000000       0.000000000
  0.000000000       8.582861487       0.000000000
  0.000000000       0.000000000       8.091999410
 
ATOMIC_POSITIONS {angstrom}
Al   0.00000000  0.00000000  0.00000000
Al   5.34056471  3.76320368  3.80057551
Al   7.45085561  3.31178474  1.66230877
Al   1.93309858  4.10640734  2.77355319
Al   4.55479859  5.54269445  0.58331323
Al   5.71092823  4.25719259  6.20098063
Al   7.66001119  0.95949808  5.74326219
Al   1.81070895  7.30893851  0.54010633
Al   3.44829498  1.55865614  3.97194893
Al   2.78488381  3.85120694  4.66842222
Al   7.72693528  3.47448257  4.38254264
Al   6.08779945  6.66208695  5.78649880
Al   8.49430189  1.91528760  3.06103603
Al   1.29361043  2.44620504  5.84420713
Al   1.90001053  1.69908970  1.12227390
Al   0.34417103  4.75866893  0.66648717
Al   1.71803816  4.92272922  6.33072605
Al   8.34187937  6.81520657  5.70183658
Al   6.26838174  1.62587729  3.19639657
Al   6.44181760  4.46414710  8.07122158
Al   5.24348320  2.14031649  7.44241812
Al   6.04653726  5.13396837  2.41752820
Al   4.55353305  2.19465176  1.94513159
Al   1.75534580  0.04719218  5.92958137
Al   6.69434873  0.91377057  0.73014103
Al   5.48248044  1.94272031  5.21594438
Al   2.93579541  3.55269467  7.97142182
Al   4.66115561  0.15453846  1.84388587
Al   2.95537223  6.69875903  2.40171344
Al   1.57353273  8.50054163  2.73750269
Al   6.43043243  7.93469589  3.35256941
Al   3.58936469  1.07649279  6.35476431
Al   3.96998353  5.62877051  4.32698848
Al   4.06376270  7.94404057  4.73643159
Al   7.21316133  6.77772530  0.30594854
Al   8.34260745  6.26794230  2.85903375
