&CONTROL
  calculation='scf',
  verbosity='high',
  restart_mode='from_scratch',
  tstress=.false.,
  tprnfor=.true.,
  prefix='Al',
  pseudo_dir='/ascldap/users/namodin/MLDFT/pp/',
  outdir='out',
/
&SYSTEM
 ibrav=0,
 nosym=.true.,
 nat=256,
 ntyp=1,
 ecutwfc=100,
 ecutrho=400,
 occupations='smearing',
 smearing='fermi-dirac',
 degauss=0.00590928377
 nbnd=576
/
&ELECTRONS
 mixing_mode='plain',
 mixing_beta=0.2,
 conv_thr=0.000256,
/

ATOMIC_SPECIES
 Al  26.981539  Al.sr-pbesol.upf

K_POINTS automatic
 8 8 8 0 0 0

CELL_PARAMETERS angstrom
16.19800000000000 0.00000000000000 0.00000000000000
0.00000000000000 16.19800000000000 0.00000000000000
0.00000000000000 0.00000000000000 16.19800000000000

ATOMIC_POSITIONS crystal
Al    0.00858289     0.01093749     0.99854894
Al    0.00650019     0.10646378     0.14261096
Al    0.11414445     0.99120282     0.13071859
Al    0.13613163     0.11418453     0.96893017
Al    0.99188790     0.00290036     0.28155398
Al    0.01071068     0.12986677     0.38369003
Al    0.14084471     0.99236998     0.37096713
Al    0.12161004     0.11119674     0.26652391
Al    0.01781931     0.99367868     0.48970131
Al    0.99458495     0.11525955     0.63182212
Al    0.11556474     0.99458500     0.60825805
Al    0.13958498     0.12065153     0.49389065
Al    0.00720192     0.99903777     0.74800024
Al    0.98924305     0.13490549     0.89024407
Al    0.13349779     0.99354044     0.84717213
Al    0.12865504     0.13077759     0.75989174
Al    0.99643586     0.23944491     0.00512210
Al    0.00389022     0.39610574     0.11733760
Al    0.12386092     0.23646580     0.11749215
Al    0.12569339     0.37838641     0.01508017
Al    0.00227652     0.24752433     0.25287832
Al    0.02235238     0.37705521     0.38998160
Al    0.13150792     0.26278574     0.37005527
Al    0.13084340     0.36210508     0.24691288
Al    0.99429545     0.24346983     0.52577720
Al    0.98994458     0.37286007     0.63688652
Al    0.13583066     0.25727161     0.61363231
Al    0.12889933     0.36777235     0.49684355
Al    0.99712003     0.24133391     0.76229279
Al    0.00472385     0.36946518     0.87158490
Al    0.12916835     0.24849073     0.87709119
Al    0.11691349     0.36586636     0.75506487
Al    0.00584253     0.49702625     0.00649414
Al    0.98286828     0.62471811     0.11074647
Al    0.13295936     0.50479973     0.11622544
Al    0.12336840     0.62103060     0.00361731
Al    0.99616524     0.48925375     0.25362513
Al    0.98117131     0.62644935     0.37136093
Al    0.12894634     0.50379571     0.37242499
Al    0.11281094     0.61791522     0.23653922
Al    0.01808736     0.50293326     0.50861626
Al    0.00904743     0.61591806     0.62103423
Al    0.13848768     0.50133681     0.62704074
Al    0.14125752     0.61723661     0.49711754
Al    0.99447209     0.50092890     0.73587422
Al    0.00233139     0.61987218     0.88485758
Al    0.11423935     0.49978838     0.87062184
Al    0.13290899     0.61725594     0.74270006
Al    0.99086456     0.75364660     0.99968861
Al    0.00398990     0.87229282     0.12787519
Al    0.12239428     0.75017273     0.12784381
Al    0.12555114     0.90816791     0.98258663
Al    0.01049989     0.74713048     0.24369317
Al    0.01452501     0.86242344     0.36343987
Al    0.14068372     0.71919916     0.37983031
Al    0.12732315     0.86545353     0.25547295
Al    0.00324572     0.73973536     0.49213570
Al    0.00415696     0.87955716     0.61086809
Al    0.12238405     0.73452563     0.63076634
Al    0.12409440     0.87390067     0.49943718
Al    0.98777456     0.73322840     0.75407881
Al    0.99646019     0.86583180     0.85498692
Al    0.13659795     0.76454256     0.86532624
Al    0.10978263     0.87092221     0.73606175
Al    0.25915597     0.00401851     0.00187250
Al    0.24571288     0.13490653     0.12313283
Al    0.38461535     0.01321989     0.12024588
Al    0.38254938     0.10881029     0.99932284
Al    0.23630941     0.00365269     0.23682128
Al    0.23932729     0.13748136     0.37767376
Al    0.35175036     0.00299014     0.35462908
Al    0.38160570     0.11768793     0.24656927
Al    0.25022772     0.00247378     0.50223552
Al    0.25290592     0.12804105     0.64129006
Al    0.35833252     0.00892378     0.61879582
Al    0.36587948     0.13756262     0.48839728
Al    0.26255835     0.99810339     0.75801599
Al    0.25478784     0.11463255     0.86633148
Al    0.38643670     0.99579132     0.87259852
Al    0.37406867     0.13033491     0.75869549
Al    0.25590653     0.22641386     0.99306590
Al    0.24480256     0.37198323     0.12480935
Al    0.36307446     0.24728100     0.12855749
Al    0.36611837     0.37770560     0.98956894
Al    0.25732328     0.24036596     0.24963263
Al    0.26178391     0.37436523     0.37213467
Al    0.39540356     0.25277326     0.36554549
Al    0.37211418     0.36624633     0.24368251
Al    0.24998185     0.25956939     0.50866947
Al    0.25933098     0.38042074     0.63280852
Al    0.36977365     0.24938293     0.63194413
Al    0.37611510     0.37176966     0.52143167
Al    0.25125820     0.26625872     0.75123849
Al    0.24572735     0.37921961     0.87722562
Al    0.38001966     0.26265017     0.87915180
Al    0.38797703     0.38734783     0.75318925
Al    0.25337644     0.48311489     0.98893756
Al    0.25082130     0.63030047     0.12522591
Al    0.36812638     0.50542986     0.11192537
Al    0.37147702     0.64352610     0.99748713
Al    0.25482885     0.49279128     0.24426320
Al    0.26255859     0.61980747     0.35381809
Al    0.39833472     0.47411286     0.37543666
Al    0.38601867     0.62823543     0.22622947
Al    0.28657218     0.49549567     0.52595028
Al    0.24380946     0.62661418     0.62404858
Al    0.39373417     0.50706466     0.64301044
Al    0.37095206     0.62533078     0.48733605
Al    0.24736526     0.49933268     0.74125274
Al    0.24761888     0.63431750     0.88196157
Al    0.37149023     0.51800057     0.87696325
Al    0.37794096     0.63369203     0.75816843
Al    0.23836561     0.76056427     0.99477818
Al    0.24131568     0.89210906     0.11549309
Al    0.37048120     0.76124854     0.12049514
Al    0.38519915     0.86810347     0.00567275
Al    0.25016305     0.75138659     0.23978858
Al    0.25572040     0.86443513     0.38218184
Al    0.37122386     0.75221266     0.36822337
Al    0.37304725     0.88660401     0.24725417
Al    0.24853807     0.74934332     0.49937981
Al    0.24578430     0.86783388     0.61230958
Al    0.36545620     0.75806076     0.62410880
Al    0.38269084     0.86964335     0.49019401
Al    0.24754642     0.75355619     0.74245691
Al    0.25394675     0.88863666     0.88148363
Al    0.37863264     0.75636537     0.87606615
Al    0.35761682     0.86440202     0.74521648
Al    0.51499715     0.00319261     0.00477126
Al    0.51481261     0.12996220     0.13474526
Al    0.62158434     0.00614594     0.12215865
Al    0.65237837     0.12549271     0.00390157
Al    0.49754806     0.00528446     0.26262522
Al    0.50287427     0.12470574     0.37188463
Al    0.61946372     0.98982600     0.38218034
Al    0.64935763     0.10729665     0.24758591
Al    0.47551685     0.99956968     0.49901800
Al    0.50892011     0.13889582     0.61668574
Al    0.60076090     0.01007511     0.63385797
Al    0.63091576     0.13976607     0.49362185
Al    0.49421776     0.01312506     0.75862686
Al    0.49621059     0.12291397     0.86890150
Al    0.63934845     0.99916982     0.85049437
Al    0.61681448     0.14508342     0.73986697
Al    0.48769740     0.25124783     0.00207689
Al    0.47463706     0.36641884     0.12184645
Al    0.62560511     0.23877120     0.14181062
Al    0.59987624     0.35913576     0.00109698
Al    0.50793621     0.24051529     0.24970049
Al    0.50335967     0.35603215     0.38725303
Al    0.63660326     0.25582457     0.38160068
Al    0.60783240     0.36222884     0.24609293
Al    0.51154027     0.25629003     0.51497816
Al    0.52090502     0.39798657     0.61938646
Al    0.64120602     0.25487225     0.63557789
Al    0.63985186     0.37922251     0.51756772
Al    0.48558201     0.25005398     0.74979241
Al    0.48305174     0.38493797     0.89300468
Al    0.60493260     0.24647258     0.86952639
Al    0.61161918     0.37481564     0.75721499
Al    0.49465181     0.51702544     0.99192035
Al    0.49914787     0.63113208     0.11509975
Al    0.62302427     0.47390439     0.11172027
Al    0.63016191     0.62362099     0.00625799
Al    0.49412118     0.49545462     0.22574940
Al    0.47747692     0.63009549     0.35695734
Al    0.60810916     0.50761338     0.35978059
Al    0.59868251     0.62462031     0.24140141
Al    0.49397117     0.49436373     0.50461690
Al    0.49527334     0.63575966     0.61335415
Al    0.62202937     0.52376172     0.61754791
Al    0.61067026     0.62615954     0.48975529
Al    0.50378713     0.52486314     0.76214834
Al    0.50342176     0.64218225     0.89639227
Al    0.63460995     0.49635123     0.89215000
Al    0.62306277     0.62243114     0.77040359
Al    0.49813316     0.75553856     0.01249464
Al    0.49821260     0.89797411     0.13401262
Al    0.62674909     0.76314352     0.11415762
Al    0.64633386     0.88142948     0.99393902
Al    0.50262788     0.75466934     0.22817995
Al    0.49695095     0.88053472     0.36735805
Al    0.60144892     0.74827175     0.35927704
Al    0.62697231     0.87481939     0.25321199
Al    0.50976097     0.75616883     0.50449068
Al    0.47924483     0.88507555     0.63166182
Al    0.61072067     0.73626637     0.64143886
Al    0.62405649     0.86250950     0.51229166
Al    0.49627788     0.75770414     0.74912230
Al    0.50931543     0.88500510     0.89103730
Al    0.62093952     0.75937091     0.86356121
Al    0.61079532     0.88542366     0.75706146
Al    0.76942928     0.01275478     0.98896792
Al    0.76900380     0.13833165     0.12755103
Al    0.88843162     0.00002330     0.11723526
Al    0.87904013     0.14493043     0.01566621
Al    0.76299977     0.98949876     0.25726062
Al    0.75660628     0.13497699     0.40157499
Al    0.87337804     0.99298996     0.39733808
Al    0.86509532     0.14084476     0.24611173
Al    0.72996921     0.01379975     0.51259482
Al    0.75608860     0.12392179     0.62199785
Al    0.88836023     0.99588670     0.61441490
Al    0.87436399     0.11623832     0.50237334
Al    0.74398167     0.97164587     0.72782530
Al    0.77313058     0.12980295     0.87514246
Al    0.86187816     0.97468338     0.84696398
Al    0.86126118     0.11153114     0.74510311
Al    0.75396696     0.25339185     0.00296242
Al    0.74015671     0.36400648     0.13693966
Al    0.87351879     0.25698453     0.12214002
Al    0.86846946     0.37844467     0.99520824
Al    0.75292998     0.26282060     0.25201310
Al    0.74094593     0.37281295     0.38427625
Al    0.88374473     0.25018272     0.39052697
Al    0.87964520     0.37266828     0.25636568
Al    0.76129696     0.26752007     0.50952263
Al    0.75056265     0.38534230     0.64503133
Al    0.86909435     0.24681380     0.65092018
Al    0.87561027     0.37153049     0.49836062
Al    0.75238644     0.24593310     0.76155881
Al    0.74153230     0.37239140     0.87651124
Al    0.87743734     0.24764967     0.87830838
Al    0.87763737     0.37125664     0.76989004
Al    0.74584829     0.49283393     0.00898408
Al    0.71809766     0.62079947     0.12517126
Al    0.85685040     0.50082651     0.12954336
Al    0.86086108     0.62132596     0.00015819
Al    0.73061951     0.47970375     0.26100073
Al    0.74614824     0.61097569     0.34777627
Al    0.86786155     0.49865301     0.37183224
Al    0.87376143     0.65193653     0.23354491
Al    0.77182689     0.49756351     0.51125741
Al    0.75218156     0.61968730     0.63092796
Al    0.88241459     0.51069354     0.63527469
Al    0.87228183     0.62094869     0.51073240
Al    0.74780567     0.49613700     0.76263882
Al    0.74787743     0.61833493     0.87864454
Al    0.88339699     0.49583713     0.88714142
Al    0.86136746     0.62650713     0.77123128
Al    0.74945256     0.74756882     0.99327091
Al    0.74817869     0.88539443     0.13689326
Al    0.85856705     0.75790909     0.10780622
Al    0.87931271     0.88451540     0.99870784
Al    0.73274428     0.74316657     0.24890149
Al    0.77570677     0.86918008     0.37857483
Al    0.88402575     0.75230304     0.36329815
Al    0.89399754     0.86267000     0.23918041
Al    0.73639190     0.72941077     0.47788508
Al    0.76226014     0.84168480     0.61434570
Al    0.87216378     0.74040872     0.62510747
Al    0.86559942     0.86095482     0.49903510
Al    0.74108688     0.74090179     0.75678531
Al    0.74478553     0.87153100     0.87185596
Al    0.86380129     0.75015417     0.86619297
Al    0.87277279     0.87628994     0.73369200
