&CONTROL
  calculation='scf',
  verbosity='high',
  restart_mode='from_scratch',
  tstress=.false.,
  tprnfor=.true.,
  prefix='Al',
  pseudo_dir='/ascldap/users/namodin/MLDFT/pp/',
  outdir='out',
/
&SYSTEM
 ibrav=0,
 nosym=.true.,
 nat=256,
 ntyp=1,
 ecutwfc=100,
 ecutrho=400,
 occupations='smearing',
 smearing='fermi-dirac',
 degauss=0.00590928377
 nbnd=576
/
&ELECTRONS
 mixing_mode='plain',
 mixing_beta=0.2,
 conv_thr=0.000256,
/

ATOMIC_SPECIES
 Al  26.981539  Al.sr-pbesol.upf

K_POINTS automatic
 8 8 8 0 0 0

CELL_PARAMETERS angstrom
16.19800000000000 0.00000000000000 0.00000000000000
0.00000000000000 16.19800000000000 0.00000000000000
0.00000000000000 0.00000000000000 16.19800000000000

ATOMIC_POSITIONS crystal
Al    0.57477164     0.63046187     0.21656476
Al    0.85248017     0.44389598     0.67239040
Al    0.03994941     0.64118785     0.79236078
Al    0.25274132     0.88644851     0.87652872
Al    0.31882745     0.66279089     0.04567437
Al    0.44155915     0.11244582     0.02249422
Al    0.51446954     0.62305476     0.50278527
Al    0.15152081     0.74260921     0.28712404
Al    0.11776733     0.84363764     0.59709204
Al    0.84642794     0.08546095     0.23319279
Al    0.81380679     0.05564631     0.91033719
Al    0.32176613     0.29129213     0.84724466
Al    0.05601237     0.32653343     0.16438889
Al    0.71827413     0.46810126     0.80967370
Al    0.51739646     0.08152952     0.31785518
Al    0.50878305     0.46737826     0.19365655
Al    0.14952101     0.96434756     0.44292303
Al    0.65162797     0.93927828     0.50954606
Al    0.82634918     0.55013184     0.51358700
Al    0.07930174     0.41263684     0.42643924
Al    0.99006669     0.94441834     0.49791326
Al    0.65637720     0.05893206     0.23389922
Al    0.31356810     0.26785295     0.39587215
Al    0.33053887     0.49114649     0.12280239
Al    0.63215913     0.24989962     0.06263221
Al    0.04905748     0.60972745     0.24290518
Al    0.46379650     0.82787777     0.35694231
Al    0.85876047     0.68664759     0.62039542
Al    0.34465316     0.19108192     0.71703178
Al    0.11834227     0.69302326     0.50416952
Al    0.17838347     0.92586121     0.73359803
Al    0.68167192     0.66839852     0.47622151
Al    0.53030268     0.44532334     0.50351956
Al    0.04111442     0.76347762     0.88627482
Al    0.04005202     0.09693783     0.47036815
Al    0.37513829     0.86005516     0.51627308
Al    0.92460929     0.99460031     0.71067025
Al    0.23061726     0.92307000     0.29958371
Al    0.42000948     0.60620748     0.17988676
Al    0.79491900     0.46700714     0.34964560
Al    0.20631468     0.17877136     0.79668803
Al    0.94637106     0.93368940     0.23448380
Al    0.57486570     0.34475004     0.88809522
Al    0.10558037     0.36031436     0.00280131
Al    0.57390087     0.56995109     0.64729707
Al    0.49723943     0.84933765     0.61363830
Al    0.56376837     0.54502414     0.35990151
Al    0.47505059     0.71602232     0.92436958
Al    0.85316356     0.59988063     0.75216097
Al    0.09251854     0.80060933     0.09235451
Al    0.42737112     0.41873013     0.83309613
Al    0.75869758     0.27337016     0.62274950
Al    0.68028835     0.50764119     0.21145512
Al    0.16606015     0.35761965     0.28880424
Al    0.78446744     0.29752156     0.07131244
Al    0.56567174     0.79115725     0.47561601
Al    0.79736467     0.39908799     0.20967568
Al    0.25163000     0.62587285     0.39263331
Al    0.38784515     0.80860018     0.02163971
Al    0.78388035     0.94598426     0.31127474
Al    0.35089955     0.83324121     0.72653423
Al    0.85680578     0.06046498     0.50904651
Al    0.25258043     0.44825100     0.58037136
Al    0.67683022     0.74664960     0.09633878
Al    0.91583468     0.66197358     0.89481724
Al    0.34698132     0.97754843     0.95291736
Al    0.95704028     0.77428193     0.50365437
Al    0.13576755     0.64027295     0.12348984
Al    0.92115170     0.02785762     0.36321250
Al    0.24794140     0.46017602     0.40606404
Al    0.82832438     0.41388068     0.94758371
Al    0.67495001     0.99577311     0.95515150
Al    0.56418361     0.82323880     0.19664745
Al    0.85243943     0.14579451     0.08195693
Al    0.20375538     0.51227089     0.01288841
Al    0.48452378     0.26562796     0.77776134
Al    0.13725499     0.18735720     0.60582032
Al    0.85251564     0.80181864     0.15221907
Al    0.34580983     0.94525589     0.13406721
Al    0.18984827     0.32408808     0.49049804
Al    0.69531010     0.43372872     0.63808864
Al    0.36588610     0.38026297     0.49869006
Al    0.68115429     0.41546501     0.00707650
Al    0.03458838     0.25908053     0.51043115
Al    0.62403475     0.73051286     0.61591876
Al    0.21478391     0.36476340     0.12271602
Al    0.79403931     0.50020230     0.08278029
Al    0.22566272     0.09502195     0.49604431
Al    0.74166866     0.16589241     0.80873795
Al    0.45394228     0.26112631     0.96350354
Al    0.31019964     0.65836171     0.71688422
Al    0.33429809     0.12208071     0.87836067
Al    0.96002590     0.67036782     0.11632246
Al    0.59212977     0.17069976     0.89939107
Al    0.91512733     0.53096635     0.19839054
Al    0.38729330     0.05069505     0.58216582
Al    0.56385928     0.04790556     0.60919640
Al    0.10453300     0.36554379     0.62321778
Al    0.30088270     0.23512435     0.55899494
Al    0.25326962     0.60216496     0.56426269
Al    0.65468898     0.39080680     0.38702457
Al    0.56567643     0.33214719     0.62481022
Al    0.60576373     0.06248460     0.08126760
Al    0.79858968     0.86611816     0.99357432
Al    0.93825536     0.34367553     0.38713272
Al    0.07969002     0.63608811     0.98056435
Al    0.50210284     0.93808560     0.73766799
Al    0.22892307     0.90292697     0.02965359
Al    0.34848137     0.36350975     0.21896478
Al    0.09610446     0.01033057     0.61319428
Al    0.19208453     0.75868136     0.96019784
Al    0.07198867     0.03197409     0.30770502
Al    0.28521992     0.09468288     0.04164588
Al    0.98907478     0.09422530     0.16352079
Al    0.79161402     0.90311614     0.79617426
Al    0.92889007     0.27793636     0.66411451
Al    0.12496822     0.17096487     0.08626692
Al    0.53795382     0.74763911     0.76071518
Al    0.63810914     0.83309434     0.84302156
Al    0.91319573     0.76074678     0.77070111
Al    0.15216765     0.47687341     0.73970523
Al    0.98914627     0.53992374     0.66422157
Al    0.04190898     0.21873614     0.74849454
Al    0.92011594     0.24176890     0.21063159
Al    0.06820983     0.04809178     0.77844102
Al    0.02282025     0.73049101     0.63797392
Al    0.41188163     0.53284316     0.59491923
Al    0.33950050     0.37088705     0.98845088
Al    0.96712101     0.39316968     0.55348956
Al    0.99246003     0.33166675     0.89520231
Al    0.37904167     0.53113108     0.43832993
Al    0.57387900     0.19384208     0.18801655
Al    0.40010152     0.77852532     0.19169822
Al    0.90624905     0.85718742     0.64316828
Al    0.51882395     0.02056504     0.90659939
Al    0.75649193     0.82178980     0.56871194
Al    0.79990448     0.14287460     0.38692067
Al    0.46289384     0.19863650     0.61071091
Al    0.32680942     0.72970852     0.86542329
Al    0.46787130     0.23934032     0.30459802
Al    0.40322483     0.96226153     0.29442843
Al    0.49317970     0.97752238     0.48552292
Al    0.38849268     0.12869386     0.44586290
Al    0.61424586     0.91993618     0.31159921
Al    0.64488923     0.61123791     0.78755290
Al    0.71645472     0.14100602     0.00895767
Al    0.83480854     0.90797286     0.48113649
Al    0.43545585     0.68297895     0.64851932
Al    0.51100487     0.38187483     0.03733030
Al    0.14792083     0.62570049     0.68063492
Al    0.65205720     0.26988686     0.50380153
Al    0.26860611     0.77081156     0.59895433
Al    0.79766166     0.01096405     0.09068293
Al    0.72381713     0.77788315     0.25375002
Al    0.73645324     0.18886282     0.17858114
Al    0.07844142     0.91301161     0.95242993
Al    0.50658003     0.70758450     0.09747765
Al    0.88440572     0.84348175     0.35270295
Al    0.01544908     0.39187033     0.76117522
Al    0.15025824     0.31719674     0.82911584
Al    0.40362847     0.10683642     0.19282651
Al    0.75042789     0.75396697     0.71739746
Al    0.64490698     0.36321380     0.15781509
Al    0.62441637     0.23286516     0.34841356
Al    0.24890645     0.80974074     0.15902473
Al    0.33157553     0.99253644     0.79946028
Al    0.77248738     0.74608928     0.87878425
Al    0.69777509     0.91014208     0.16083279
Al    0.78644455     0.96741980     0.63556087
Al    0.79375981     0.29674135     0.34248058
Al    0.86267370     0.24113317     0.94533714
Al    0.11216486     0.19716697     0.92735820
Al    0.67644664     0.50532373     0.48856786
Al    0.36600658     0.70540228     0.47528118
Al    0.09969146     0.20522191     0.24361755
Al    0.10218608     0.52021205     0.55960698
Al    0.89125039     0.68865405     0.26215014
Al    0.00993457     0.42710892     0.28317024
Al    0.42180334     0.25920806     0.10998547
Al    0.30405551     0.77899960     0.31635055
Al    0.23911474     0.32629455     0.69621831
Al    0.21993414     0.60131706     0.85606277
Al    0.24265884     0.95084729     0.57794296
Al    0.29798133     0.09815019     0.32138813
Al    0.77870517     0.64379785     0.16855570
Al    0.15603381     0.20080671     0.38897358
Al    0.50941849     0.97824886     0.18106830
Al    0.64160541     0.02725315     0.77289387
Al    0.26503471     0.23472643     0.00216269
Al    0.25990925     0.63982250     0.22405250
Al    0.91979693     0.39301929     0.09735002
Al    0.82037667     0.13992412     0.67933857
Al    0.91929726     0.54492381     0.36314152
Al    0.42652713     0.65182358     0.33402965
Al    0.65965991     0.30717155     0.75270435
Al    0.91297938     0.12885055     0.81947808
Al    0.33112911     0.50651628     0.28910964
Al    0.84943967     0.31123643     0.80234733
Al    0.96006486     0.93418825     0.06819968
Al    0.46004333     0.86513309     0.88422059
Al    0.71365538     0.82537224     0.39996589
Al    0.21640511     0.04071447     0.19095136
Al    0.56101875     0.45350906     0.74869482
Al    0.27147639     0.22498283     0.23917605
Al    0.83227982     0.69662660     0.42650862
Al    0.39776163     0.36100502     0.64864653
Al    0.72467409     0.62276093     0.33650332
Al    0.09057410     0.56700069     0.39052666
Al    0.70007290     0.13235864     0.56393670
Al    0.02249321     0.70221147     0.35745918
Al    0.93506140     0.94944439     0.86528222
Al    0.47575339     0.93450507     0.03993958
Al    0.96505251     0.17402962     0.34921094
Al    0.08439368     0.50313326     0.90196749
Al    0.58072297     0.52001932     0.89810992
Al    0.80398364     0.37480349     0.50862377
Al    0.61140405     0.16284712     0.70590063
Al    0.60534317     0.85375105     0.00797941
Al    0.45883895     0.42324755     0.35062021
Al    0.46171080     0.55530870     0.03526843
Al    0.05909061     0.84493683     0.39319878
Al    0.63464478     0.68710957     0.96255084
Al    0.90965645     0.48133760     0.83469803
Al    0.97791299     0.08543923     0.97769198
Al    0.81196413     0.68793715     0.02401677
Al    0.92779797     0.78669985     0.98307004
Al    0.88912523     0.22311764     0.51941204
Al    0.98675091     0.11832256     0.62427098
Al    0.32793154     0.50381155     0.72140048
Al    0.66104307     0.04557555     0.39388302
Al    0.16695435     0.50052819     0.21358574
Al    0.48792149     0.28892388     0.46614692
Al    0.18465104     0.03622256     0.89037000
Al    0.32858795     0.97321493     0.42648167
Al    0.59622194     0.73632289     0.32901421
Al    0.63077579     0.55381811     0.05615386
Al    0.46184678     0.58770006     0.78886099
Al    0.97862865     0.23819162     0.06653690
Al    0.36855172     0.55515890     0.92537911
Al    0.97867034     0.60915028     0.51936234
Al    0.20407144     0.80838614     0.45051253
Al    0.25551299     0.43070882     0.86139082
Al    0.55475571     0.14345541     0.47190679
Al    0.76981765     0.57042268     0.92746538
Al    0.71723781     0.29339095     0.89804963
Al    0.10421405     0.91959816     0.18230576
Al    0.93541500     0.53055606     0.98469651
Al    0.02783327     0.87507401     0.75544200
Al    0.17238518     0.75312988     0.77720857
Al    0.47043815     0.10077689     0.75912776
Al    0.01709523     0.78643129     0.22208659
Al    0.64077734     0.88664330     0.68764304
Al    0.72353341     0.61148059     0.64968068
Al    0.24784782     0.06758699     0.67191406
Al    0.04259226     0.50316477     0.10478923
Al    0.10496891     0.02784405     0.05259849
